 vasp.5.4.4.18Apr17-6-g9f103f2a35 (build May 20 2018 16:52:39) complex

 executed on             LinuxIFC date 2022.11.14  12:12:32

 INCAR:
 POTCAR:   PAW_GGA Mo 08Jan2002
 POTCAR:   PAW_GGA S 21Jan2003
 POTCAR:   PAW_GGA Mo 08Jan2002
   VRHFIN =Mo: 4p5s4d

   TITEL  = PAW_GGA Mo 08Jan2002
   POMASS =   95.940; ZVAL   =    6.000    mass and valenz
   ENMAX  =  224.580; ENMIN  =  168.435 eV
   QCUT   =   -4.063; QGAM   =    8.126    optimization parameters

   Description
     l     E      TYP  RCUT    TYP  RCUT
     2   .000     23  2.500
     2   .000     23  2.500
     0   .000     23  2.600
     0  1.000     23  2.600
     1   .400     23  2.750
     1  2.000     23  2.750
     3   .000      7   .000

 POTCAR:   PAW_GGA S 21Jan2003
   VRHFIN =S : s2p4

   TITEL  = PAW_GGA S 21Jan2003
   POMASS =   32.066; ZVAL   =    6.000    mass and valenz
   ENMAX  =  280.000; ENMIN  =  194.015 eV
   QCUT   =   -4.360; QGAM   =    8.721    optimization parameters

   Description
     l     E      TYP  RCUT    TYP  RCUT
     0   .000     23  1.900
     0   .000     23  1.900
     1   .000     23  1.900
     1   .000     23  1.900
     2   .000      7  1.900

 PAW_GGA Mo 08Jan2002                   :
 PAW_GGA S 21Jan2003                    :

 POSCAR: Mo2 S4
  positions in direct lattice
 exchange correlation table for  LEXCH =        7
   RHO(1)=    0.500       N(1)  =     2000
   RHO(2)=  100.500       N(2)  =     4000

 ion  position               nearest neighbor table
   1  0.333  0.667  0.125-   2 2.42   3 2.42   2 2.42   3 2.42   2 2.42   3 2.42
   2  0.667  0.333  0.178-   1 2.42   1 2.42   1 2.42
   3  0.667  0.333  0.072-   1 2.42   1 2.42   1 2.42

  LATTYP: Found a hexagonal cell.
 ALAT       =     3.1903153920
 C/A-ratio  =     9.3276044353

  Lattice vectors:

 A1 = (   3.1903160000,   0.0000000000,   0.0000000000)
 A2 = (  -1.5951580000,   2.7628940000,   0.0000000000)
 A3 = (   0.0000000000,   0.0000000000,  29.7580000000)

Analysis of symmetry for initial positions (statically):
 Subroutine PRICEL returns:
 Original cell was already a primitive cell.

 Routine SETGRP: Setting up the symmetry group for a
 hexagonal supercell.

 Subroutine GETGRP returns: Found 12 space group operations
 (whereof  6 operations were pure point group operations)
 out of a pool of 24 trial point group operations.

The static configuration has the point symmetry C_3v.
 The point group associated with its full space group is D_3h.

Analysis of symmetry for dynamics (positions and initial velocities):
 Subroutine PRICEL returns:
 Original cell was already a primitive cell.

 Routine SETGRP: Setting up the symmetry group for a
 hexagonal supercell.

 Subroutine GETGRP returns: Found 12 space group operations
 (whereof  6 operations were pure point group operations)
 out of a pool of 24 trial point group operations.

The dynamic configuration has the point symmetry C_3v.
 The point group associated with its full space group is D_3h.

 Subroutine INISYM returns: Found 12 space group operations
 (whereof  6 operations are pure point group operations),
 and found     1 'primitive' translations

 KPOINTS: 10x10x1

Automatic generation of k-mesh.
Space group operators:
 irot       det(A)        alpha          n_x          n_y          n_z        tau_x        tau_y        tau_z
    1     1.000000     0.000000     1.000000     0.000000     0.000000     0.000000     0.000000     0.000000
    2     1.000000   120.000000     0.000000     0.000000    -1.000000     0.000000     0.000000     0.000000
    3     1.000000   120.000000     0.000000     0.000000     1.000000     0.000000     0.000000     0.000000
    4    -1.000000   180.000000     1.000000     0.000000     0.000000     0.000000     0.000000     0.000000
    5    -1.000000   180.000000     0.500000    -0.866025     0.000000     0.000000     0.000000     0.000000
    6    -1.000000   180.000000    -0.500000    -0.866025     0.000000     0.000000     0.000000     0.000000
    7    -1.000000    60.000000     0.000000     0.000000    -1.000000     0.000000     0.000000     0.250000
    8    -1.000000   180.000000     0.000000     0.000000     1.000000     0.000000     0.000000     0.250000
    9    -1.000000    60.000000     0.000000     0.000000     1.000000     0.000000     0.000001     0.250000
   10     1.000000   180.000000     0.866025    -0.500000     0.000000     0.000000     0.000000     0.250000
   11     1.000000   180.000000     0.000000     1.000000     0.000000     0.000000     0.000000     0.250000
   12     1.000000   180.000000     0.866025     0.500000     0.000000     0.000000     0.000001     0.250000

 Subroutine IBZKPT returns following result:

 Found     14 irreducible k-points:

 Following reciprocal coordinates:
            Coordinates               Weight
  0.000000  0.000000  0.000000      1.000000
  0.100000  0.000000  0.000000      6.000000
  0.200000  0.000000  0.000000      6.000000
  0.300000  0.000000  0.000000      6.000000
  0.400000  0.000000  0.000000      6.000000
  0.500000  0.000000  0.000000      3.000000
  0.100000  0.100000  0.000000      6.000000
  0.200000  0.100000  0.000000     12.000000
  0.300000  0.100000  0.000000     12.000000
  0.400000  0.100000  0.000000     12.000000
  0.200000  0.200000  0.000000      6.000000
  0.300000  0.200000  0.000000     12.000000
  0.400000  0.200000  0.000000      6.000000
  0.300000  0.300000  0.000000      6.000000

 Following cartesian coordinates:
            Coordinates               Weight
  0.000000  0.000000  0.000000      1.000000
  0.031345  0.018097  0.000000      6.000000
  0.062690  0.036194  0.000000      6.000000
  0.094035  0.054291  0.000000      6.000000
  0.125379  0.072388  0.000000      6.000000
  0.156724  0.090485  0.000000      3.000000
  0.031345  0.054291  0.000000      6.000000
  0.062690  0.072388  0.000000     12.000000
  0.094035  0.090485  0.000000     12.000000
  0.125379  0.108582  0.000000     12.000000
  0.062690  0.108582  0.000000      6.000000
  0.094035  0.126679  0.000000     12.000000
  0.125379  0.144776  0.000000      6.000000
  0.094035  0.162873  0.000000      6.000000

 TETIRR: Found     55 inequivalent tetrahedra from      600

 SYSTEM =  monolayer MoS2
 POSCAR =  Mo2 S4

 Startparameter for this run:
   NWRITE =      2    write-flag & timer
   PREC   = normal    normal or accurate (medium, high low for compatibility)
   ISTART =      0    job   : 0-new  1-cont  2-samecut
   ICHARG =      2    charge: 1-file 2-atom 10-const
   ISPIN  =      1    spin polarized calculation?
   LNONCOLLINEAR =      F non collinear calculations
   LSORBIT =      F    spin-orbit coupling
   INIWAV =      1    electr: 0-lowe 1-rand  2-diag
   LASPH  =      F    aspherical Exc in radial PAW
   METAGGA=      F    non-selfconsistent MetaGGA calc.

 Electronic Relaxation 1
   ENCUT  =  280.0 eV  20.58 Ry    4.54 a.u.   4.35  4.35 40.60*2*pi/ulx,y,z
   ENINI  =  280.0     initial cutoff
   ENAUG  =  345.3 eV  augmentation charge cutoff
   NELM   =     60;   NELMIN=  2; NELMDL= -5     # of ELM steps
   EDIFF  = 0.1E-05   stopping-criterion for ELM
   LREAL  =      F    real-space projection
   NLSPLINE    = F    spline interpolate recip. space projectors
   LCOMPAT=      F    compatible to vasp.4.4
   GGA_COMPAT  = T    GGA compatible to vasp.4.4-vasp.4.6
   LMAXPAW     = -100 max onsite density
   LMAXMIX     =    2 max onsite mixed and CHGCAR
   VOSKOWN=      0    Vosko Wilk Nusair interpolation
   ROPT   =    0.00000   0.00000
 Ionic relaxation
   EDIFFG = 0.1E-04   stopping-criterion for IOM
   NSW    =      0    number of steps for IOM
   NBLOCK =      1;   KBLOCK =      1    inner block; outer block
   IBRION =     -1    ionic relax: 0-MD 1-quasi-New 2-CG
   NFREE  =      0    steps in history (QN), initial steepest desc. (CG)
   ISIF   =      2    stress and relaxation
   IWAVPR =     10    prediction:  0-non 1-charg 2-wave 3-comb
   ISYM   =      2    0-nonsym 1-usesym 2-fastsym
   LCORR  =      T    Harris-Foulkes like correction to forces

   POTIM  = 0.5000    time-step for ionic-motion
   TEIN   =    0.0    initial temperature
   TEBEG  =    0.0;   TEEND  =   0.0 temperature during run
   SMASS  =  -3.00    Nose mass-parameter (am)
   estimated Nose-frequenzy (Omega)   =  0.10E-29 period in steps =****** mass=  -0.233E-27a.u.
   SCALEE = 1.0000    scale energy and forces
   NPACO  =    256;   APACO  = 16.0  distance and # of slots for P.C.
   PSTRESS=    0.0 pullay stress

  Mass of Ions in am
   POMASS =  95.94 32.07
  Ionic Valenz
   ZVAL   =   6.00  6.00
  Atomic Wigner-Seitz radii
  virtual crystal weights
   VCA    =   1.00  1.00
   NELECT =      18.0000    total number of electrons
   NUPDOWN=      -1.0000    fix difference up-down

 DOS related values:
   EMIN   =  10.00;   EMAX   =-10.00  energy-range for DOS
   EFERMI =   0.00
   ISMEAR =    -5;   SIGMA  =   0.20  broadening in eV -4-tet -1-fermi 0-gaus

 Electronic relaxation 2 (details)
   IALGO  =     38    algorithm
   LDIAG  =      T    sub-space diagonalisation (order eigenvalues)
   LSUBROT=      F    optimize rotation matrix (better conditioning)
   TURBO    =      0    0=normal 1=particle mesh
   IRESTART =      0    0=no restart 2=restart with 2 vectors
   NREBOOT  =      0    no. of reboots
   NMIN     =      0    reboot dimension
   EREF     =   0.00    reference energy to select bands
   IMIX   =      4    mixing-type and parameters
     AMIX     =   0.40;   BMIX     =  1.00
     AMIX_MAG =   1.60;   BMIX_MAG =  1.00
     AMIN     =   0.10
     WC   =   100.;   INIMIX=   1;  MIXPRE=   1;  MAXMIX= -45

 Intra band minimization:
   WEIMIN = 0.0000     energy-eigenvalue tresh-hold
   EBREAK =  0.19E-07  absolut break condition
   DEPER  =   0.30     relativ break condition

   TIME   =   0.40     timestep for ELM

  volume/ion in A,a.u.               =      87.43       590.03
  Fermi-wavevector in a.u.,A,eV,Ry     =   0.670242  1.266574  6.112072  0.449225
  Thomas-Fermi vector in A             =   1.745701

 Write flags
   LWAVE        =      F    write WAVECAR
   LDOWNSAMPLE  =      F    k-point downsampling of WAVECAR
   LCHARG       =      T    write CHGCAR
   LVTOT        =      F    write LOCPOT, total local potential
   LVHAR        =      F    write LOCPOT, Hartree potential only
   LELF         =      F    write electronic localiz. function (ELF)
   LORBIT       =      0    0 simple, 1 ext, 2 COOP (PROOUT), +10 PAW based schemes

 Dipole corrections
   LMONO  =      F    monopole corrections only (constant potential shift)
   LDIPOL =      F    correct potential (dipole corrections)
   IDIPOL =      0    1-x, 2-y, 3-z, 4-all directions
   EPSILON=  1.0000000 bulk dielectric constant

 Exchange correlation treatment:
   GGA     =    --    GGA type
   VOSKOWN=      0    Vosko Wilk Nusair interpolation
   LHFCALC =     F    Hartree Fock is set to
   LHFONE  =     F    Hartree Fock one center treatment
   AEXX    =    0.0000 exact exchange contribution

 Linear response parameters
   LEPSILON=     F    determine dielectric tensor
   LRPA    =     F    only Hartree local field effects (RPA)
   LNABLA  =     F    use nabla operator in PAW spheres
   LVEL    =     F    velocity operator in full k-point grid
   LINTERFAST=   F  fast interpolation
   KINTER  =     0    interpolate to denser k-point grid
   CSHIFT  =0.1000    complex shift for real part using Kramers Kronig
   OMEGAMAX=  -1.0    maximum frequency
   DEG_THRESHOLD= 0.2000000E-02 threshold for treating states as degnerate
   RTIME   =   -0.100 relaxation time in fs
  (WPLASMAI=    0.000 imaginary part of plasma frequency in eV, 0.658/RTIME)
   DFIELD  = 0.0000000 0.0000000 0.0000000 field for delta impulse in time

 Orbital magnetization related:
   ORBITALMAG=     F  switch on orbital magnetization
   LCHIMAG   =     F  perturbation theory with respect to B field
   DQ        =  0.001000  dq finite difference perturbation B field
   LLRAUG    =     F  two centre corrections for induced B field

 Static calculation
 charge density and potential will be updated during run
 non-spin polarized calculation
 Variant of blocked Davidson
 Davidson routine will perform the subspace rotation
 perform sub-space diagonalisation
    after iterative eigenvector-optimisation
 modified Broyden-mixing scheme, WC =      100.0
 initial mixing is a Kerker type mixing with AMIX =  0.4000 and BMIX =      1.0000
 Hartree-type preconditioning will be used
 using additional bands            4
 reciprocal scheme for non local part
 use partial core corrections
 calculate Harris-corrections to forces
   (improved forces if not selfconsistent)
 use gradient corrections
 use of overlap-Matrix (Vanderbilt PP)
 Fermi weights with tetrahedron method with Bloechl corrections

  energy-cutoff  :      280.00
  volume of cell :      262.30
      direct lattice vectors                 reciprocal lattice vectors
     3.190316000  0.000000000  0.000000000     0.313448574  0.180969664  0.000000000
    -1.595158000  2.762894000  0.000000000     0.000000000  0.361939329  0.000000000
     0.000000000  0.000000000 29.758000000     0.000000000  0.000000000  0.033604409

  length of vectors
     3.190316000  3.190315392 29.758000000     0.361939260  0.361939329  0.033604409

 k-points in units of 2pi/SCALE and weight: 10x10x1
   0.00000000  0.00000000  0.00000000       0.010
   0.03134486  0.01809697  0.00000000       0.060
   0.06268971  0.03619393  0.00000000       0.060
   0.09403457  0.05429090  0.00000000       0.060
   0.12537943  0.07238787  0.00000000       0.060
   0.15672429  0.09048483  0.00000000       0.030
   0.03134486  0.05429090  0.00000000       0.060
   0.06268971  0.07238787  0.00000000       0.120
   0.09403457  0.09048483  0.00000000       0.120
   0.12537943  0.10858180  0.00000000       0.120
   0.06268971  0.10858180  0.00000000       0.060
   0.09403457  0.12667877  0.00000000       0.120
   0.12537943  0.14477573  0.00000000       0.060
   0.09403457  0.16287270  0.00000000       0.060

 k-points in reciprocal lattice and weights: 10x10x1
   0.00000000  0.00000000  0.00000000       0.010
   0.10000000  0.00000000  0.00000000       0.060
   0.20000000  0.00000000  0.00000000       0.060
   0.30000000  0.00000000  0.00000000       0.060
   0.40000000  0.00000000  0.00000000       0.060
   0.50000000  0.00000000  0.00000000       0.030
   0.10000000  0.10000000  0.00000000       0.060
   0.20000000  0.10000000  0.00000000       0.120
   0.30000000  0.10000000  0.00000000       0.120
   0.40000000  0.10000000  0.00000000       0.120
   0.20000000  0.20000000  0.00000000       0.060
   0.30000000  0.20000000  0.00000000       0.120
   0.40000000  0.20000000  0.00000000       0.060
   0.30000000  0.30000000  0.00000000       0.060

 position of ions in fractional coordinates (direct lattice)
   0.33333300  0.66666700  0.12500000
   0.66666700  0.33333300  0.17758700
   0.66666700  0.33333300  0.07241300

 position of ions in cartesian coordinates  (Angst):
  -0.00000160  1.84193025  3.71975000
   1.59515960  0.92096375  5.28463395
   1.59515960  0.92096375  2.15486605

 k-point  1 :   0.0000 0.0000 0.0000  plane waves:    2859
 k-point  2 :   0.1000 0.0000 0.0000  plane waves:    2849
 k-point  3 :   0.2000 0.0000 0.0000  plane waves:    2801
 k-point  4 :   0.3000 0.0000 0.0000  plane waves:    2802
 k-point  5 :   0.4000 0.0000 0.0000  plane waves:    2770
 k-point  6 :   0.5000 0.0000 0.0000  plane waves:    2768
 k-point  7 :   0.1000 0.1000 0.0000  plane waves:    2813
 k-point  8 :   0.2000 0.1000 0.0000  plane waves:    2793
 k-point  9 :   0.3000 0.1000 0.0000  plane waves:    2771
 k-point 10 :   0.4000 0.1000 0.0000  plane waves:    2788
 k-point 11 :   0.2000 0.2000 0.0000  plane waves:    2804
 k-point 12 :   0.3000 0.2000 0.0000  plane waves:    2787
 k-point 13 :   0.4000 0.2000 0.0000  plane waves:    2794
 k-point 14 :   0.3000 0.3000 0.0000  plane waves:    2778

 maximum and minimum number of plane-waves per node :      2859     2768

 maximum number of plane-waves:      2859
 maximum index in each direction:
   IXMAX=    4   IYMAX=    4   IZMAX=   40
   IXMIN=   -4   IYMIN=   -4   IZMIN=  -40

 serial   3D FFT for wavefunctions
 parallel 3D FFT for charge:
    minimum data exchange during FFTs selected (reduces bandwidth)

 Broyden mixing: mesh for mixing (old mesh)
   NGX =  9   NGY =  9   NGZ = 81
  (NGX  = 28   NGY  = 28   NGZ  =252)
  gives a total of   6561 points

 initial charge density was supplied:
 charge density of overlapping atoms calculated
 number of electron      18.0000000 magnetization
 keeping initial charge density in first step

 Maximum index for augmentation-charges         5838 (set IRDMAX)

 First call to EWALD:  gamma=   0.277
 Maximum number of real-space cells 6x 6x 1
 Maximum number of reciprocal cells 2x 2x11

--------------------------------------- Iteration      1(   1)  ---------------------------------------

 BZINTS: Fermi energy:  5.965041; 18.000000 electrons
         Band energy: -38.274604;  BLOECHL correction: -0.280634

 eigenvalue-minimisations  :   380
 total energy-change (2. order) : 0.1092163E+03  (-0.4438282E+03)
 number of electron      18.0000000 magnetization
 augmentation part       18.0000000 magnetization

 Free energy of the ion-electron system (eV)
  alpha Z        PSCENC =        10.00292264
  Ewald energy   TEWEN  =      5064.60431233
  -Hartree energ DENC   =     -5740.44040128
  -exchange      EXHF   =         0.00000000
  -V(xc)+E(xc)   XCENC  =       -37.02287067
  PAW double counting   =       408.00268931     -330.16966160
  entropy T*S    EENTRO =         0.00000000
  eigenvalues    EBANDS =       -38.27460402
  atomic energy  EATOM  =       772.51394549
  Solvation  Ediel_sol  =         0.00000000
  free energy    TOTEN  =       109.21633219 eV

  energy without entropy =      109.21633219  energy(sigma->0) =      109.21633219

[...]

 BZINTS: Fermi energy: -2.180566; 18.000000 electrons
         Band energy:-157.481622;  BLOECHL correction:  0.000000

 eigenvalue-minimisations  :   646
 total energy-change (2. order) :-0.1192070E+03  (-0.1134775E+03)
 number of electron      18.0000000 magnetization
 augmentation part       18.0000000 magnetization

[...]

 Broyden mixing:
  rms(total) = 0.68772E+00    rms(broyden)= 0.68761E+00
  rms(prec ) = 0.73477E+00
  weight for this iteration     100.00

[...]

 eigenvalues of (default mixing * dielectric matrix)
  average eigenvalue GAMMA=   0.7857
  0.7857

[...]

 eigenvalue-minimisations  :   429
 total energy-change (2. order) : 0.3866310E-04  (-0.1800944E-04)
 number of electron      17.9999973 magnetization
 augmentation part       -0.5492598 magnetization

[...]

 Broyden mixing:
  rms(total) = 0.25274E-04    rms(broyden)= 0.25261E-04
  rms(prec ) = 0.29212E-04
  weight for this iteration     100.00

 eigenvalues of (default mixing * dielectric matrix)
  average eigenvalue GAMMA=   2.3652
  7.5876  6.7052  3.4323  3.1512  2.5098  1.9697  1.9697  1.5854  0.6113  1.0711
  1.0711  0.9948  0.9948  0.9029  0.9216

[...]

--------------------------------------- Iteration      1(  21)  ---------------------------------------

[...]

 eigenvalue-minimisations  :   182
 total energy-change (2. order) :-0.6343474E-06  (-0.6061070E-08)
 number of electron      17.9999973 magnetization
 augmentation part       -0.5501217 magnetization

 Free energy of the ion-electron system (eV)
  alpha Z        PSCENC =        10.00292264
  Ewald energy   TEWEN  =      5064.60431233
  -Hartree energ DENC   =     -5753.49017203
  -exchange      EXHF   =         0.00000000
  -V(xc)+E(xc)   XCENC  =       -35.90684301
  PAW double counting   =       477.54071435     -401.46387988
  entropy T*S    EENTRO =         0.00000000
  eigenvalues    EBANDS =      -155.54704672
  atomic energy  EATOM  =       772.51394549
  Solvation  Ediel_sol  =         0.00000000
  free energy    TOTEN  =       -21.74604684 eV

  energy without entropy =      -21.74604684  energy(sigma->0) =      -21.74604684

 average (electrostatic) potential at core
  the test charge radii are     1.2296  0.9698
  (the norm of the test charge is              1.0000)
       1 -47.1869       2-111.4898       3-111.4898

 E-fermi :  -3.6594     XC(G=0):  -2.5608     alpha+bet : -2.4800

 k-point     1 :       0.0000    0.0000    0.0000
  band No.  band energies     occupation
      1     -17.6672      2.00000
      2     -16.4647      2.00000
      3      -9.1888      2.00000
      4      -6.2503      2.00000
      5      -6.2503      2.00000
      6      -5.3880      2.00000
      7      -5.1455      2.00000
      8      -5.1455      2.00000
      9      -3.6699      2.00000
     10      -0.9005      0.00000
     11      -0.9004      0.00000
     12      -0.6838      0.00000
     13      -0.6838      0.00000

[...]

 k-point    14 :       0.3000    0.3000    0.0000
  band No.  band energies     occupation
      1     -15.6768      2.00000
      2     -15.5036      2.00000
      3      -8.9151      2.00000
      4      -8.4174      2.00000
      5      -7.4253      2.00000
      6      -7.1033      2.00000
      7      -6.6092      2.00000
      8      -5.6831      2.00000
      9      -3.7922      2.00000
     10      -1.8909      0.00000
     11      -0.5992      0.00000
     12      -0.3414      0.00000
     13       1.0658      0.00000

 soft charge-density along one line, spin component           1
         0         1         2         3         4         5         6         7         8         9
 total charge-density along one line

------------------------ aborting loop because EDIFF is reached ----------------------------------------

  FORCE on cell =-STRESS in cart. coord.  units (eV):
  Direction    XX          YY          ZZ          XY          YZ          ZX
  Alpha Z    10.00292    10.00292    10.00292
  Ewald    5631.47057  5631.47106 -6198.33776     0.00038    -0.00000    -0.00000
  Hartree  5715.02113  5715.02113 -5676.54730     0.00001    -0.00000     0.00000
  E(xc)     -70.49428   -70.49432   -71.06454    -0.00003    -0.00000     0.00000
  Local  -11649.58422-11649.58488 11565.24562    -0.00060    -0.00000     0.00000
  n-local   168.94944   167.64168   174.18650    -0.61944     0.00001     0.00002
  augment   -42.93797   -42.93775   -44.25742     0.00019     0.00000    -0.00000
  Kinetic   236.78513   239.07866   240.44576    -7.47675    -0.00001     0.00001
  Fock        0.00000     0.00000     0.00000     0.00000     0.00000     0.00000
  Total      -0.29438    -0.29438    -0.32624     0.00000     0.00000     0.00000
  in kB      -1.79813    -1.79813    -1.99269     0.00000     0.00000     0.00000

 VOLUME and BASIS-vectors are now :
  energy-cutoff  :      280.00
  volume of cell :      262.30
      direct lattice vectors                 reciprocal lattice vectors
     3.190316000  0.000000000  0.000000000     0.313448574  0.180969664  0.000000000
    -1.595158000  2.762894000  0.000000000     0.000000000  0.361939329  0.000000000
     0.000000000  0.000000000 29.758000000     0.000000000  0.000000000  0.033604409

  length of vectors
     3.190316000  3.190315392 29.758000000     0.361939260  0.361939329  0.033604409

 FORCES acting on ions
    electron-ion (+dipol)            ewald-force                    non-local-force                 convergence-correction
   0.666E-05 0.151E-04 -.139E-05   0.186E-03 -.138E-03 0.000E+00   -.347E-16 0.000E+00 0.424E-21   -.178E-08 0.982E-09 0.964E-11
   -.966E-03 0.549E-03 -.591E+03   -.929E-04 0.688E-04 0.596E+03   -.867E-17 0.278E-16 -.583E+01   0.208E-08 -.118E-08 0.488E-03
   -.967E-03 0.550E-03 0.591E+03   -.929E-04 0.688E-04 -.596E+03   -.208E-16 0.243E-16 0.583E+01   0.209E-08 -.118E-08 -.488E-03
   -.193E-02 0.111E-02 0.242E-04   0.450E-16 0.822E-14 0.000E+00   -.642E-16 0.520E-16 -.178E-14   0.238E-08 -.138E-08 0.212E-11

 POSITION                                       TOTAL-FORCE (eV/Angst)
     -0.00000      1.84193      3.71975        -0.000000      0.000000      0.000000
      1.59516      0.92096      5.28463         0.000000     -0.000000      0.000188
      1.59516      0.92096      2.15487         0.000000      0.000000     -0.000188
    total drift:                               -0.001926      0.001114      0.000024

  FREE ENERGIE OF THE ION-ELECTRON SYSTEM (eV)
  free  energy   TOTEN  =       -21.74604684 eV

  energy  without entropy=      -21.74604684  energy(sigma->0) =      -21.74604684

 BZINTS: Fermi energy: -3.659402; 18.000000 electrons
         Band energy:-155.547047;  BLOECHL correction:  0.000000