 vasp.5.3.5 31Mar14 (build Dec 14 2018 19:18:10) complex

 INCAR:
 POTCAR:    PAW Au 04Oct2007
 POTCAR:   PAW Al 17Apr2000
 POTCAR:    PAW Au 04Oct2007
   VRHFIN =Au: s1d10

   TITEL  = PAW Au 04Oct2007
   POMASS =  196.966; ZVAL   =   11.000    mass and valenz
   ENMAX  =  229.869; ENMIN  =  172.402 eV

 POTCAR:   PAW Al 17Apr2000
   VRHFIN =Al: s2p1

   TITEL  = PAW Al 17Apr2000
   POMASS =   26.982; ZVAL   =    3.000    mass and valenz
   ENMAX  =  240.957; ENMIN  =  180.718 eV
   QCUT   =   -4.208; QGAM   =    8.417    optimization parameters

   Description
     l     E      TYP  RCUT    TYP  RCUT
     0   .000     23  1.900
     0   .000     23  1.900
     1   .000     23  1.900
     1  1.000     23  1.900
     2   .000      7  1.900

  PAW Au 04Oct2007                      :
 PAW Al 17Apr2000                       :

 POSCAR: AuAl2
  positions in direct lattice
  velocities in cartesian coordinates
 exchange correlation table for  LEXCH =        2
   RHO(1)=    0.500       N(1)  =     2000
   RHO(2)=  100.500       N(2)  =     4000

 ion  position               nearest neighbor table
   1  0.000  0.000  0.000-   3 2.60   3 2.60   3 2.60   2 2.60   3 2.60   2 2.60   2 2.60   2 2.60

   2  0.250  0.250  0.250-   1 2.60   1 2.60   1 2.60   1 2.60   3 3.00   3 3.00   3 3.00   3 3.00
                             3 3.00   3 3.00
   3  0.750  0.750  0.750-   1 2.60   1 2.60   1 2.60   1 2.60   2 3.00   2 3.00   2 3.00   2 3.00
                             2 3.00   2 3.00

  LATTYP: Found a face centered cubic cell.
 ALAT       =     6.0000000000

  Lattice vectors:

 A1 = (   0.0000000000,   3.0000000000,   3.0000000000)
 A2 = (   3.0000000000,   0.0000000000,   3.0000000000)
 A3 = (   3.0000000000,   3.0000000000,   0.0000000000)

Analysis of symmetry for initial positions (statically):
 Subroutine PRICEL returns:
 Original cell was already a primitive cell.

 Routine SETGRP: Setting up the symmetry group for a
 face centered cubic supercell.

 Subroutine GETGRP returns: Found 48 space group operations
 (whereof 48 operations were pure point group operations)
 out of a pool of 48 trial point group operations.

The static configuration has the point symmetry O_h .

Analysis of symmetry for dynamics (positions and initial velocities):
 Subroutine PRICEL returns:
 Original cell was already a primitive cell.

[...]

The dynamic configuration has the point symmetry O_h .

Analysis of structural, dynamic, and magnetic symmetry:
 Subroutine PRICEL returns:
 Original cell was already a primitive cell.

 Routine SETGRP: Setting up the symmetry group for a
 face centered cubic supercell.

 Subroutine GETGRP returns: Found  6 space group operations
 (whereof  6 operations were pure point group operations)
 out of a pool of 48 trial point group operations.

The (compounded) configuration has the point symmetry S_6 .

 KPOINTS: 10X10x10

Automatic generation of k-mesh.
Space group operators:
 irot       det(A)        alpha          n_x          n_y          n_z        tau_x        tau_y        tau_z
    1     1.000000     0.000000     1.000000     0.000000     0.000000     0.000000     0.000000     0.000000
    2    -1.000000     0.000000     1.000000     0.000000     0.000000     0.000000     0.000000     0.000000
    3     1.000000   120.000000    -0.577350    -0.577350    -0.577350     0.000000     0.000000     0.000000
    4    -1.000000   120.000000    -0.577350    -0.577350    -0.577350     0.000000     0.000000     0.000000
    5     1.000000   120.000000     0.577350     0.577350     0.577350     0.000000     0.000000     0.000000
    6    -1.000000   120.000000     0.577350     0.577350     0.577350     0.000000     0.000000     0.000000

 Subroutine IBZKPT returns following result:

 Found    670 irreducible k-points:

 Following reciprocal coordinates:
            Coordinates               Weight
  0.050000  0.050000  0.050000     24.000000
  0.050000  0.000000  0.000000     72.000000
  0.150000  0.050000  0.050000     72.000000
  0.050000  0.000000 -0.100000     72.000000
  0.150000  0.100000  0.100000     72.000000
  0.050000 -0.100000  0.000000     72.000000
  0.250000  0.050000  0.050000     72.000000
  0.050000  0.000000 -0.200000     72.000000
  0.250000  0.200000  0.200000     72.000000
  0.050000 -0.200000  0.000000     72.000000
  0.350000  0.050000  0.050000     72.000000
  0.050000  0.000000 -0.300000     72.000000
  0.350000  0.300000  0.300000     72.000000
  0.050000 -0.300000  0.000000     72.000000
  0.450000  0.050000  0.050000     72.000000
  0.050000  0.000000 -0.400000     72.000000
  0.450000  0.400000  0.400000     72.000000
  0.050000 -0.400000  0.000000     72.000000
 -0.450000  0.050000  0.050000     72.000000
  0.050000  0.000000  0.500000     72.000000
 -0.450000  0.500000  0.500000     72.000000
  0.050000  0.500000  0.000000     72.000000
 -0.350000  0.050000  0.050000     72.000000
  0.050000  0.000000  0.400000     72.000000
 -0.350000 -0.400000 -0.400000     72.000000
  0.050000  0.400000  0.000000     72.000000
 -0.250000  0.050000  0.050000     72.000000
  0.050000  0.000000  0.300000     72.000000
 -0.250000 -0.300000 -0.300000     72.000000
  0.050000  0.300000  0.000000     72.000000
 -0.150000  0.050000  0.050000     72.000000
  0.050000  0.000000  0.200000     72.000000
 -0.150000 -0.200000 -0.200000     72.000000
  0.050000  0.200000  0.000000     72.000000
 -0.050000  0.050000  0.050000     72.000000
  0.050000  0.000000  0.100000     72.000000
 -0.050000 -0.100000 -0.100000     72.000000
  0.050000  0.100000  0.000000     72.000000
  0.150000  0.150000  0.050000     72.000000
  0.150000  0.100000  0.000000     72.000000
  0.150000  0.000000  0.100000     72.000000
  0.050000 -0.100000 -0.100000     72.000000
  0.250000  0.150000  0.050000     72.000000
  0.150000  0.100000 -0.100000     72.000000
  0.250000  0.100000  0.200000     72.000000
  0.050000 -0.200000 -0.100000     72.000000
  0.100000  0.200000 -0.050000     72.000000
  0.100000 -0.100000 -0.150000     72.000000
 -0.200000 -0.100000 -0.250000     72.000000
 -0.250000 -0.050000 -0.150000     72.000000
  0.350000  0.150000  0.050000     72.000000
  0.150000  0.100000 -0.200000     72.000000
  0.350000  0.200000  0.300000     72.000000
  0.050000 -0.300000 -0.100000     72.000000
  0.100000  0.300000 -0.050000     72.000000
  0.200000 -0.100000 -0.150000     72.000000
 -0.300000 -0.200000 -0.350000     72.000000
 -0.350000 -0.050000 -0.150000     72.000000
  0.450000  0.150000  0.050000     72.000000
  0.150000  0.100000 -0.300000     72.000000
[...]
  0.350000 -0.300000 -0.100000     72.000000
  0.100000  0.300000 -0.350000     72.000000
  0.200000 -0.100000 -0.450000     72.000000
 -0.300000 -0.200000  0.350000     72.000000
  0.350000 -0.350000 -0.450000     72.000000
 -0.450000 -0.450000  0.350000     72.000000
 -0.450000  0.200000  0.000000     72.000000
 -0.450000  0.000000  0.200000     72.000000
  0.350000 -0.200000 -0.200000     72.000000
  0.450000  0.450000  0.450000     24.000000
  0.450000  0.000000  0.000000     72.000000
 -0.450000  0.450000  0.450000     72.000000
  0.450000  0.000000 -0.100000     72.000000
 -0.450000  0.100000  0.100000     72.000000
  0.450000 -0.100000  0.000000     72.000000

 Following cartesian coordinates:
            Coordinates               Weight
  0.050000  0.050000  0.050000     24.000000
 -0.050000  0.050000  0.050000     72.000000
 -0.050000  0.150000  0.150000     72.000000
 -0.150000 -0.050000  0.150000     72.000000
  0.050000  0.150000  0.150000     72.000000
 -0.150000  0.150000 -0.050000     72.000000
 -0.150000  0.250000  0.250000     72.000000
 -0.250000 -0.150000  0.250000     72.000000
  0.150000  0.250000  0.250000     72.000000
 -0.250000  0.250000 -0.150000     72.000000
 -0.250000  0.350000  0.350000     72.000000
 -0.350000 -0.250000  0.350000     72.000000
  0.250000  0.350000  0.350000     72.000000
 -0.350000  0.350000 -0.250000     72.000000
 -0.350000  0.450000  0.450000     72.000000
 -0.450000 -0.350000  0.450000     72.000000
  0.350000  0.450000  0.450000     72.000000
 -0.450000  0.450000 -0.350000     72.000000
  0.550000 -0.450000 -0.450000     72.000000
  0.450000  0.550000 -0.450000     72.000000
  1.450000 -0.450000 -0.450000     72.000000
  0.450000 -0.450000  0.550000     72.000000
  0.450000 -0.350000 -0.350000     72.000000
  0.350000  0.450000 -0.350000     72.000000
 -0.450000 -0.350000 -0.350000     72.000000
  0.350000 -0.350000  0.450000     72.000000
  0.350000 -0.250000 -0.250000     72.000000
  0.250000  0.350000 -0.250000     72.000000
 -0.350000 -0.250000 -0.250000     72.000000
  0.250000 -0.250000  0.350000     72.000000
  0.250000 -0.150000 -0.150000     72.000000
  0.150000  0.250000 -0.150000     72.000000
 -0.250000 -0.150000 -0.150000     72.000000
  0.150000 -0.150000  0.250000     72.000000
  0.150000 -0.050000 -0.050000     72.000000
  0.050000  0.150000 -0.050000     72.000000
 -0.150000 -0.050000 -0.050000     72.000000
  0.050000 -0.050000  0.150000     72.000000
  0.050000  0.050000  0.250000     72.000000
 -0.050000  0.050000  0.250000     72.000000
 -0.050000  0.250000  0.050000     72.000000
 -0.250000  0.050000  0.050000     72.000000
 -0.050000  0.150000  0.350000     72.000000
 -0.150000 -0.050000  0.350000     72.000000
  0.050000  0.350000  0.150000     72.000000
 -0.350000  0.150000 -0.050000     72.000000
  0.050000 -0.150000  0.350000     72.000000
 -0.350000  0.050000  0.150000     72.000000
 -0.150000 -0.350000 -0.050000     72.000000
  0.050000 -0.350000 -0.150000     72.000000
 -0.150000  0.250000  0.450000     72.000000
 -0.250000 -0.150000  0.450000     72.000000
  0.150000  0.450000  0.250000     72.000000
 -0.450000  0.250000 -0.150000     72.000000
  0.150000 -0.250000  0.450000     72.000000
 -0.450000  0.150000  0.250000     72.000000
 -0.250000 -0.450000 -0.150000     72.000000
  0.150000 -0.450000 -0.250000     72.000000
 -0.250000  0.350000  0.550000     72.000000
 -0.350000 -0.250000  0.550000     72.000000
[...]
 -0.750000  0.550000  0.150000     72.000000
 -0.150000 -0.550000  0.750000     72.000000
 -0.750000 -0.150000  0.550000     72.000000
  0.450000  0.250000 -0.850000     72.000000
 -1.150000  0.250000  0.450000     72.000000
  0.350000  0.350000 -1.250000     72.000000
  0.650000 -0.650000 -0.250000     72.000000
  0.650000 -0.250000 -0.650000     72.000000
 -0.750000  0.350000  0.350000     72.000000
  0.450000  0.450000  0.450000     24.000000
 -0.450000  0.450000  0.450000     72.000000
  1.350000 -0.450000 -0.450000     72.000000
 -0.550000  0.350000  0.550000     72.000000
  0.650000 -0.450000 -0.450000     72.000000
 -0.550000  0.550000  0.350000     72.000000

 I would recommend the setting:
   dimension x,y,z NGX =    16 NGY =   16 NGZ =   16
 SYSTEM =  AuAl2
 POSCAR =  AuAl2

 Startparameter for this run:
   NWRITE =      2    write-flag & timer
   PREC   = normal    normal or accurate (medium, high low for compatibility)
   ISTART =      0    job   : 0-new  1-cont  2-samecut
   ICHARG =      2    charge: 1-file 2-atom 10-const
   ISPIN  =      1    spin polarized calculation?
   LNONCOLLINEAR =      T non collinear calculations
[...]
      4.50000      4.50000      4.50000        -0.000080     -0.000080     -0.000080
    total drift:                                0.000000     -0.000000     -0.000000

  FREE ENERGIE OF THE ION-ELECTRON SYSTEM (eV)
  free  energy   TOTEN  =       -14.67538888 eV

  energy  without entropy=      -14.67603788  energy(sigma->0) =      -14.67560521

 writing wavefunctions

 plasma frequency squared (from intraband transitions)
      43.120       0.000       0.000
       0.000      43.120       0.000
       0.000       0.000      43.120

 electrical conductivity sigma (Mega S m-1) (frequency dependency in vasprun.xml)
       0.088       0.000       0.000
       0.000       0.088       0.000
       0.000       0.000       0.088

 plasma frequency squared (from intraband transitions)

 plasma frequency squared (from interband transitions, int dw w eps(2)(w)
     212.532      -0.000      -0.000
      -0.000     212.532      -0.000
      -0.000      -0.000     212.532
 plasma frequency squared  (valence only):     434.089

  frequency dependent IMAGINARY DIELECTRIC FUNCTION (independent particle, no local field effects)
     E(ev)      X         Y         Z        XY        YZ        ZX
    0.000000    0.000000    0.000000    0.000000    0.000000    0.000000    0.000000
    0.251020   16.675748   16.675748   16.675748   -0.001804   -0.001804   -0.001804
    0.502039   40.898491   40.898491   40.898491   -0.001246   -0.001246   -0.001246
    0.753059   30.496477   30.496477   30.496477    0.001155    0.001155    0.001155
    1.004078   26.663723   26.663723   26.663723   -0.000199   -0.000199   -0.000199
    1.255098   10.778820   10.778820   10.778820    0.000057    0.000057    0.000057
    1.506118    4.909896    4.909896    4.909896   -0.000083   -0.000083   -0.000083
    1.757137    4.143612    4.143612    4.143612    0.000206    0.000206    0.000206
    2.008157    5.823134    5.823134    5.823134    0.000478    0.000478    0.000478
    2.259177    8.645000    8.645000    8.645000    0.001827    0.001827    0.001827
    2.510196   12.205849   12.205849   12.205849    0.001288    0.001288    0.001288
    2.761216   17.558997   17.558997   17.558997    0.002831    0.002831    0.002831
    3.012235   19.620578   19.620578   19.620578    0.000727    0.000727    0.000727
    3.263255   19.135979   19.135979   19.135979    0.000281    0.000281    0.000281
    3.514275   14.747528   14.747528   14.747528   -0.000630   -0.000630   -0.000630
    3.765294   11.798025   11.798025   11.798025   -0.000545   -0.000545   -0.000545
    4.016314   10.703586   10.703586   10.703586   -0.000455   -0.000455   -0.000455
    4.267333    8.874886    8.874886    8.874886   -0.000756   -0.000756   -0.000756
    4.518353    6.898078    6.898078    6.898078   -0.000360   -0.000360   -0.000360
    4.769373    7.045292    7.045292    7.045292   -0.000314   -0.000314   -0.000314
    5.020392    6.384579    6.384579    6.384579   -0.000564   -0.000564   -0.000564
    5.271412    4.825672    4.825672    4.825672   -0.000440   -0.000440   -0.000440
    5.522432    4.021733    4.021733    4.021733   -0.000125   -0.000125   -0.000125
    5.773451    4.636431    4.636431    4.636431   -0.000194   -0.000194   -0.000194
    6.024471    4.245482    4.245482    4.245482   -0.000196   -0.000196   -0.000196
    6.275490    3.286856    3.286856    3.286856   -0.000107   -0.000107   -0.000107
    6.526510    2.577706    2.577706    2.577706   -0.000127   -0.000127   -0.000127
    6.777530    2.886066    2.886066    2.886066   -0.000123   -0.000123   -0.000123
    7.028549    2.770408    2.770408    2.770408   -0.000028   -0.000028   -0.000028
    7.279569    2.271486    2.271486    2.271486   -0.000021   -0.000021   -0.000021
    7.530588    2.149515    2.149515    2.149515    0.000013    0.000013    0.000013
    7.781608    2.477920    2.477920    2.477920   -0.000021   -0.000021   -0.000021
    8.032628    2.482103    2.482103    2.482103    0.000028    0.000028    0.000028
    8.283647    2.355433    2.355433    2.355433    0.000009    0.000009    0.000009
    8.534667    2.497552    2.497552    2.497552    0.000033    0.000033    0.000033
    8.785687    2.455543    2.455543    2.455543    0.000106    0.000106    0.000106
    9.036706    2.212529    2.212529    2.212529    0.000029    0.000029    0.000029
    9.287726    1.908204    1.908204    1.908204   -0.000047   -0.000047   -0.000047
    9.538745    1.878962    1.878962    1.878962   -0.000090   -0.000090   -0.000090
    9.789765    2.128871    2.128871    2.128871   -0.000178   -0.000178   -0.000178
   10.040785    2.058703    2.058703    2.058703   -0.000111   -0.000111   -0.000111
   10.291804    1.717135    1.717135    1.717135   -0.000029   -0.000029   -0.000029
   10.542824    1.611557    1.611557    1.611557   -0.000015   -0.000015   -0.000015
   10.793843    1.560639    1.560639    1.560639   -0.000035   -0.000035   -0.000035
   11.044863    1.559299    1.559299    1.559299   -0.000431   -0.000431   -0.000431
   11.295883    1.533427    1.533427    1.533427   -0.000167   -0.000167   -0.000167
   11.546902    1.482198    1.482198    1.482198   -0.000074   -0.000074   -0.000074
   11.797922    1.387214    1.387214    1.387214    0.000206    0.000206    0.000206
   12.048942    1.337173    1.337173    1.337173    0.000127    0.000127    0.000127
   12.299961    1.278928    1.278928    1.278928    0.000049    0.000049    0.000049
   12.550981    1.222313    1.222313    1.222313    0.000060    0.000060    0.000060
   12.802000    1.137297    1.137297    1.137297    0.000133    0.000133    0.000133
   13.053020    1.059777    1.059777    1.059777    0.000048    0.000048    0.000048
   13.304040    0.943187    0.943187    0.943187   -0.000048   -0.000048   -0.000048
   13.555059    0.914006    0.914006    0.914006   -0.000017   -0.000017   -0.000017
   13.806079    0.812195    0.812195    0.812195   -0.000016   -0.000016   -0.000016
   14.057098    0.714477    0.714477    0.714477    0.000001    0.000001    0.000001
   14.308118    0.630860    0.630860    0.630860   -0.000015   -0.000015   -0.000015
   14.559138    0.566879    0.566879    0.566879   -0.000043   -0.000043   -0.000043
   14.810157    0.438704    0.438704    0.438704   -0.000029   -0.000029   -0.000029
[...]
   21.336667    0.006564    0.006564    0.006564    0.000000    0.000000    0.000000
   21.587687    0.006239    0.006239    0.006239    0.000000    0.000000    0.000000
   21.838706    0.005938    0.005938    0.005938    0.000000    0.000000    0.000000
   22.089726    0.005660    0.005660    0.005660    0.000000    0.000000    0.000000
   22.340746    0.005402    0.005402    0.005402    0.000000    0.000000    0.000000
   22.591765    0.005162    0.005162    0.005162    0.000000    0.000000    0.000000
   22.842785    0.004938    0.004938    0.004938    0.000000    0.000000    0.000000
   23.093805    0.004728    0.004728    0.004728    0.000000    0.000000    0.000000
   23.344824    0.004532    0.004532    0.004532    0.000000    0.000000    0.000000
   23.595844    0.004348    0.004348    0.004348    0.000000    0.000000    0.000000
   23.846863    0.004175    0.004175    0.004175    0.000000    0.000000    0.000000
   24.097883    0.004012    0.004012    0.004012    0.000000    0.000000    0.000000
   24.348903    0.003858    0.003858    0.003858    0.000000    0.000000    0.000000
   24.599922    0.003713    0.003713    0.003713    0.000000    0.000000    0.000000
   24.850942    0.003575    0.003575    0.003575    0.000000    0.000000    0.000000

  frequency dependent      REAL DIELECTRIC FUNCTION (independent particle, no local field effects)
     E(ev)      X         Y         Z        XY        YZ        ZX
    0.000000   49.231691   49.231691   49.231691   -0.001356   -0.001356   -0.001356
    0.251020   53.487472   53.487472   53.487472   -0.001024   -0.001024   -0.001024
    0.502039   31.744138   31.744138   31.744138    0.002403    0.002403    0.002403
    0.753059   10.880437   10.880437   10.880437    0.000321    0.000321    0.000321
    1.004078   -0.052512   -0.052512   -0.052512    0.000354    0.000354    0.000354
    1.255098   -2.540208   -2.540208   -2.540208    0.000404    0.000404    0.000404
    1.506118    2.945547    2.945547    2.945547    0.000641    0.000641    0.000641
    1.757137    8.414602    8.414602    8.414602    0.000955    0.000955    0.000955
    2.008157   11.163235   11.163235   11.163235    0.001159    0.001159    0.001159
    2.259177   13.719521   13.719521   13.719521    0.001076    0.001076    0.001076
    2.510196   12.997246   12.997246   12.997246    0.000352    0.000352    0.000352
    2.761216   12.477000   12.477000   12.477000   -0.001074   -0.001074   -0.001074
    3.012235    5.639213    5.639213    5.639213   -0.001579   -0.001579   -0.001579
    3.263255    0.472245    0.472245    0.472245   -0.002117   -0.002117   -0.002117
    3.514275   -2.859280   -2.859280   -2.859280   -0.001089   -0.001089   -0.001089
    3.765294   -3.205592   -3.205592   -3.205592   -0.000634   -0.000634   -0.000634
    4.016314   -3.023705   -3.023705   -3.023705   -0.000680   -0.000680   -0.000680
    4.267333   -4.200961   -4.200961   -4.200961   -0.000343   -0.000343   -0.000343
    4.518353   -3.177282   -3.177282   -3.177282    0.000032    0.000032    0.000032
    4.769373   -2.575490   -2.575490   -2.575490   -0.000284   -0.000284   -0.000284
    5.020392   -3.529270   -3.529270   -3.529270   -0.000133   -0.000133   -0.000133
    5.271412   -3.249405   -3.249405   -3.249405    0.000216    0.000216    0.000216
    5.522432   -2.276279   -2.276279   -2.276279    0.000159    0.000159    0.000159
    5.773451   -1.849547   -1.849547   -1.849547    0.000008    0.000008    0.000008
    6.024471   -2.478730   -2.478730   -2.478730    0.000121    0.000121    0.000121
    6.275490   -2.587441   -2.587441   -2.587441    0.000080    0.000080    0.000080
    6.526510   -1.719970   -1.719970   -1.719970    0.000079    0.000079    0.000079
    6.777530   -1.297627   -1.297627   -1.297627    0.000142    0.000142    0.000142
    7.028549   -1.469669   -1.469669   -1.469669    0.000119    0.000119    0.000119
    7.279569   -1.282816   -1.282816   -1.282816    0.000093    0.000093    0.000093
    7.530588   -0.753212   -0.753212   -0.753212    0.000065    0.000065    0.000065
    7.781608   -0.527314   -0.527314   -0.527314    0.000068    0.000068    0.000068
    8.032628   -0.715396   -0.715396   -0.715396    0.000036    0.000036    0.000036
    8.283647   -0.619954   -0.619954   -0.619954    0.000027    0.000027    0.000027
    8.534667   -0.544940   -0.544940   -0.544940    0.000056    0.000056    0.000056
    8.785687   -0.823889   -0.823889   -0.823889   -0.000023   -0.000023   -0.000023
    9.036706   -0.902608   -0.902608   -0.902608   -0.000123   -0.000123   -0.000123
    9.287726   -0.820852   -0.820852   -0.820852   -0.000110   -0.000110   -0.000110
    9.538745   -0.516212   -0.516212   -0.516212   -0.000104   -0.000104   -0.000104
    9.789765   -0.520896   -0.520896   -0.520896   -0.000035   -0.000035   -0.000035
   10.040785   -0.851043   -0.851043   -0.851043    0.000079    0.000079    0.000079
   10.291804   -0.843882   -0.843882   -0.843882    0.000051    0.000051    0.000051
   10.542824   -0.717447   -0.717447   -0.717447   -0.000005   -0.000005   -0.000005
   10.793843   -0.614683   -0.614683   -0.614683   -0.000154   -0.000154   -0.000154
   11.044863   -0.613777   -0.613777   -0.613777   -0.000036   -0.000036   -0.000036
   11.295883   -0.587493   -0.587493   -0.587493    0.000322    0.000322    0.000322
   11.546902   -0.659971   -0.659971   -0.659971    0.000285    0.000285    0.000285
   11.797922   -0.644050   -0.644050   -0.644050    0.000251    0.000251    0.000251
   12.048942   -0.627425   -0.627425   -0.627425    0.000014    0.000014    0.000014
   12.299961   -0.659793   -0.659793   -0.659793    0.000033    0.000033    0.000033
   12.550981   -0.640517   -0.640517   -0.640517    0.000048    0.000048    0.000048
   12.802000   -0.695884   -0.695884   -0.695884    0.000033    0.000033    0.000033
   13.053020   -0.669007   -0.669007   -0.669007   -0.000114   -0.000114   -0.000114
   13.304040   -0.682529   -0.682529   -0.682529   -0.000031   -0.000031   -0.000031
   13.555059   -0.635672   -0.635672   -0.635672    0.000007    0.000007    0.000007
   13.806079   -0.670982   -0.670982   -0.670982    0.000009    0.000009    0.000009
   14.057098   -0.650949   -0.650949   -0.650949    0.000015    0.000015    0.000015
   14.308118   -0.590947   -0.590947   -0.590947   -0.000014   -0.000014   -0.000014
   14.559138   -0.598865   -0.598865   -0.598865    0.000013    0.000013    0.000013
   14.810157   -0.544351   -0.544351   -0.544351    0.000041    0.000041    0.000041
[...]
   21.336667    0.442808    0.442808    0.442808   -0.000003   -0.000003   -0.000003
   21.587687    0.458868    0.458868    0.458868   -0.000003   -0.000003   -0.000003
   21.838706    0.474143    0.474143    0.474143   -0.000002   -0.000002   -0.000002
   22.089726    0.488692    0.488692    0.488692   -0.000002   -0.000002   -0.000002
   22.340746    0.502569    0.502569    0.502569   -0.000002   -0.000002   -0.000002
   22.591765    0.515822    0.515822    0.515822   -0.000002   -0.000002   -0.000002
   22.842785    0.528493    0.528493    0.528493   -0.000002   -0.000002   -0.000002
   23.093805    0.540621    0.540621    0.540621   -0.000001   -0.000001   -0.000001
   23.344824    0.552240    0.552240    0.552240   -0.000001   -0.000001   -0.000001
   23.595844    0.563381    0.563381    0.563381   -0.000001   -0.000001   -0.000001
   23.846863    0.574075    0.574075    0.574075   -0.000001   -0.000001   -0.000001
   24.097883    0.584347    0.584347    0.584347   -0.000001   -0.000001   -0.000001
   24.348903    0.594221    0.594221    0.594221   -0.000001   -0.000001   -0.000001
   24.599922    0.603720    0.603720    0.603720   -0.000001   -0.000001   -0.000001
   24.850942    0.612864    0.612864    0.612864   -0.000001   -0.000001   -0.000001

 The outermost node in the dielectric function lies at epsilon=  17.5

 Spin-Orbit-Coupling matrix elements

 Ion:    1  E_soc:     -0.7987814
 l=   1
     0.0000000    -0.0650687    -0.0650687
    -0.0650687     0.0000000    -0.0650687
    -0.0650687    -0.0650687     0.0000000
 l=   2
     0.0000000    -0.0140026     0.0000000    -0.0140026    -0.0540589
    -0.0140026     0.0000000    -0.0405441    -0.0140026    -0.0135147
     0.0000000    -0.0405441     0.0000000    -0.0405441     0.0000000
    -0.0140026    -0.0140026    -0.0405441     0.0000000    -0.0135147
    -0.0540589    -0.0135147     0.0000000    -0.0135147     0.0000000
 l=   3
     0.0000000     0.0000000     0.0000000     0.0000000     0.0000000     0.0000000     0.0000000
     0.0000000     0.0000000     0.0000000     0.0000000     0.0000000     0.0000000     0.0000000
     0.0000000     0.0000000     0.0000000     0.0000000     0.0000000     0.0000000     0.0000000
     0.0000000     0.0000000     0.0000000     0.0000000     0.0000000     0.0000000     0.0000000
     0.0000000     0.0000000     0.0000000     0.0000000     0.0000000     0.0000000     0.0000000
     0.0000000     0.0000000     0.0000000     0.0000000     0.0000000     0.0000000     0.0000000
     0.0000000     0.0000000     0.0000000     0.0000000     0.0000000     0.0000000     0.0000000

[...]

 Ion:    3  E_soc:     -0.0004720
 l=   1
     0.0000000    -0.0000787    -0.0000787
    -0.0000787     0.0000000    -0.0000787
    -0.0000787    -0.0000787     0.0000000
 l=   2
     0.0000000     0.0000000     0.0000000     0.0000000     0.0000000
     0.0000000     0.0000000     0.0000000     0.0000000     0.0000000
     0.0000000     0.0000000     0.0000000     0.0000000     0.0000000
     0.0000000     0.0000000     0.0000000     0.0000000     0.0000000
     0.0000000     0.0000000     0.0000000     0.0000000     0.0000000
 l=   3
     0.0000000     0.0000000     0.0000000     0.0000000     0.0000000     0.0000000     0.0000000
     0.0000000     0.0000000     0.0000000     0.0000000     0.0000000     0.0000000     0.0000000
     0.0000000     0.0000000     0.0000000     0.0000000     0.0000000     0.0000000     0.0000000
     0.0000000     0.0000000     0.0000000     0.0000000     0.0000000     0.0000000     0.0000000
     0.0000000     0.0000000     0.0000000     0.0000000     0.0000000     0.0000000     0.0000000
     0.0000000     0.0000000     0.0000000     0.0000000     0.0000000     0.0000000     0.0000000
     0.0000000     0.0000000     0.0000000     0.0000000     0.0000000     0.0000000     0.0000000