 vasp.5.4.4.18Apr17-6-g9f103f2a35 (build May 20 2018 16:52:39) complex

 executed on             LinuxIFC date 2022.11.13  13:05:42

 INCAR:
 POTCAR:   PAW_GGA Mn 03Mar1998
 POTCAR:   PAW_GGA O 05Jan2001
 POTCAR:   PAW_GGA Mn 03Mar1998
   VRHFIN =Mn: d6 s1

   TITEL  = PAW_GGA Mn 03Mar1998
   POMASS =   54.938; ZVAL   =    7.000    mass and valenz
   ENMAX  =  269.887; ENMIN  =  202.415 eV
   QCUT   =   -4.454; QGAM   =    8.908    optimization parameters

   Description
     l     E      TYP  RCUT    TYP  RCUT
     2   .000     23  2.300
     2   .000     23  2.300
     0   .000     23  2.300
     0   .000     23  2.300
     1  -.200     23  2.300
     1  1.500     23  2.300
     3   .000      7   .000

 POTCAR:   PAW_GGA O 05Jan2001
   VRHFIN =O: s2p4

   TITEL  = PAW_GGA O 05Jan2001
   POMASS =   16.000; ZVAL   =    6.000    mass and valenz
   ENMAX  =  400.000; ENMIN  =  300.000 eV
   QCUT   =   -5.520; QGAM   =   11.040    optimization parameters

   Description
     l     E      TYP  RCUT    TYP  RCUT
     0   .000     23  1.200
     0  -.700     23  1.200
     1   .000     23  1.520
     1   .600     23  1.520
     2   .000      7  1.500

 PAW_GGA Mn 03Mar1998                   :
 PAW_GGA O 05Jan2001                    :

 POSCAR: MnO double fcc cell
  positions in direct lattice
  velocities in cartesian coordinates
 exchange correlation table for  LEXCH =        7
   RHO(1)=    0.500       N(1)  =     2000
   RHO(2)=  100.500       N(2)  =     4000

 ion  position               nearest neighbor table
   1  0.000  0.000  0.000-   4 2.22   4 2.22   4 2.22   3 2.22   3 2.22   3 2.22   2 3.14   2 3.14
                             2 3.14   2 3.14   2 3.14   2 3.14
   2  0.500  0.500  0.500-   3 2.22   3 2.22   3 2.22   4 2.22   4 2.22   4 2.22   1 3.14   1 3.14
                             1 3.14   1 3.14   1 3.14   1 3.14
   3  0.250  0.250  0.250-   1 2.22   1 2.22   1 2.22   2 2.22   2 2.22   2 2.22
   4  0.750  0.750  0.750-   2 2.22   2 2.22   2 2.22   1 2.22   1 2.22   1 2.22

  LATTYP: Found a trigonal (rhomboedric) cell.
 ALAT       =     5.4452156982
 COS(alpha) =     0.8333333333

  Lattice vectors:

 A1 = (   4.4460000000,   2.2230000000,   2.2230000000)
 A2 = (   2.2230000000,   4.4460000000,   2.2230000000)
 A3 = (   2.2230000000,   2.2230000000,   4.4460000000)

Analysis of symmetry for initial positions (statically):
 Subroutine PRICEL returns following result:

  LATTYP: Found a face centered cubic cell.
 ALAT       =     4.4460000000

[...]

   2 primitive cells build up your supercell.

 Routine SETGRP: Setting up the symmetry group for a
 trigonal (rhombohedral) supercell.

 Subroutine GETGRP returns: Found 12 space group operations
 (whereof 12 operations were pure point group operations)
 out of a pool of 12 trial point group operations.

The static configuration has the point symmetry D_3d.

Analysis of symmetry for dynamics (positions and initial velocities):
 Subroutine PRICEL returns following result:

[...]

The dynamic configuration has the point symmetry D_3d.

Analysis of structural, dynamic, and magnetic symmetry:
 Subroutine PRICEL returns following result:

  LATTYP: Found a face centered cubic cell.
 ALAT       =     4.4460000000

  Lattice vectors:

 A1 = (   2.2230000000,   0.0000000000,  -2.2230000000)
 A2 = (   0.0000000000,   2.2230000000,  -2.2230000000)
 A3 = (   2.2230000000,   2.2230000000,   0.0000000000)

   2 primitive cells build up your supercell.

 Routine SETGRP: Setting up the symmetry group for a
 trigonal (rhombohedral) supercell.

 Subroutine GETGRP returns: Found 12 space group operations
 (whereof 12 operations were pure point group operations)
 out of a pool of 12 trial point group operations.

The magnetic configuration has the point symmetry D_3d.

 Subroutine INISYM returns: Found 12 space group operations
 (whereof 12 operations are pure point group operations),
 and found     2 'primitive' translations

 KPOINTS: K-points
  interpolating k-points between supplied coordinates
  k-points in cartesian coordinates
Space group operators:
 irot       det(A)        alpha          n_x          n_y          n_z        tau_x        tau_y        tau_z
    1     1.000000     0.000000     1.000000     0.000000     0.000000     0.000000     0.000000     0.000000
    2    -1.000000     0.000000     1.000000     0.000000     0.000000     0.000000     0.000000     0.000000
    3     1.000000   180.000000    -0.000000     0.707107    -0.707107     0.000000     0.000000     0.000000
    4    -1.000000   180.000000    -0.000000     0.707107    -0.707107     0.000000     0.000000     0.000000
    5     1.000000   120.000000    -0.577350    -0.577350    -0.577350     0.000000     0.000000     0.000000
    6    -1.000000   120.000000    -0.577350    -0.577350    -0.577350     0.000000     0.000000     0.000000
    7     1.000000   180.000000     0.707107    -0.707107     0.000000     0.000000     0.000000     0.000000
    8    -1.000000   180.000000     0.707107    -0.707107     0.000000     0.000000     0.000000     0.000000
    9     1.000000   120.000000     0.577350     0.577350     0.577350     0.000000     0.000000     0.000000
   10    -1.000000   120.000000     0.577350     0.577350     0.577350     0.000000     0.000000     0.000000
   11     1.000000   180.000000    -0.707107     0.000000     0.707107     0.000000     0.000000     0.000000
   12    -1.000000   180.000000    -0.707107     0.000000     0.707107     0.000000     0.000000     0.000000

 SYSTEM =  MnO double cell
 POSCAR =  MnO double fcc cell

 Startparameter for this run:
   NWRITE =      2    write-flag & timer
   PREC   = normal    normal or accurate (medium, high low for compatibility)
   ISTART =      0    job   : 0-new  1-cont  2-samecut
   ICHARG =     11    charge: 1-file 2-atom 10-const
   ISPIN  =      2    spin polarized calculation?
   LNONCOLLINEAR =      F non collinear calculations
   LSORBIT =      F    spin-orbit coupling
   INIWAV =      1    electr: 0-lowe 1-rand  2-diag
   LASPH  =      F    aspherical Exc in radial PAW
   METAGGA=      F    non-selfconsistent MetaGGA calc.

 Electronic Relaxation 1
   ENCUT  =  400.0 eV  29.40 Ry    5.42 a.u.   8.88  8.88  8.88*2*pi/ulx,y,z
   ENINI  =  400.0     initial cutoff
   ENAUG  =  605.4 eV  augmentation charge cutoff
   NELM   =     60;   NELMIN=  2; NELMDL= -5     # of ELM steps
   EDIFF  = 0.1E-03   stopping-criterion for ELM
   LREAL  =      F    real-space projection
   NLSPLINE    = F    spline interpolate recip. space projectors
   LCOMPAT=      F    compatible to vasp.4.4
   GGA_COMPAT  = T    GGA compatible to vasp.4.4-vasp.4.6
   LMAXPAW     = -100 max onsite density
   LMAXMIX     =    2 max onsite mixed and CHGCAR
   VOSKOWN=      0    Vosko Wilk Nusair interpolation
   ROPT   =    0.00000   0.00000
 Ionic relaxation
   EDIFFG = 0.1E-02   stopping-criterion for IOM
   NSW    =      0    number of steps for IOM
   NBLOCK =      1;   KBLOCK =      1    inner block; outer block
   IBRION =     -1    ionic relax: 0-MD 1-quasi-New 2-CG
   NFREE  =      0    steps in history (QN), initial steepest desc. (CG)
   ISIF   =      2    stress and relaxation
   IWAVPR =     10    prediction:  0-non 1-charg 2-wave 3-comb
   ISYM   =      2    0-nonsym 1-usesym 2-fastsym
   LCORR  =      T    Harris-Foulkes like correction to forces

   POTIM  = 0.5000    time-step for ionic-motion
   TEIN   =    0.0    initial temperature
   TEBEG  =    0.0;   TEEND  =   0.0 temperature during run
   SMASS  =  -3.00    Nose mass-parameter (am)
   estimated Nose-frequenzy (Omega)   =  0.10E-29 period in steps =****** mass=  -0.678E-27a.u.
   SCALEE = 1.0000    scale energy and forces
   NPACO  =    256;   APACO  = 16.0  distance and # of slots for P.C.
   PSTRESS=    0.0 pullay stress

  Mass of Ions in am
   POMASS =  54.94 16.00
  Ionic Valenz
   ZVAL   =   7.00  6.00
  Atomic Wigner-Seitz radii
  virtual crystal weights
   VCA    =   1.00  1.00
   NELECT =      26.0000    total number of electrons
   NUPDOWN=      -1.0000    fix difference up-down

 DOS related values:
   EMIN   =  10.00;   EMAX   =-10.00  energy-range for DOS
   EFERMI =   0.00
   ISMEAR =     1;   SIGMA  =   0.20  broadening in eV -4-tet -1-fermi 0-gaus

 Electronic relaxation 2 (details)
   IALGO  =     38    algorithm
   LDIAG  =      T    sub-space diagonalisation (order eigenvalues)
   LSUBROT=      F    optimize rotation matrix (better conditioning)
   TURBO    =      0    0=normal 1=particle mesh
   IRESTART =      0    0=no restart 2=restart with 2 vectors
   NREBOOT  =      0    no. of reboots
   NMIN     =      0    reboot dimension
   EREF     =   0.00    reference energy to select bands
   IMIX   =      4    mixing-type and parameters
     AMIX     =   0.40;   BMIX     =  1.00
     AMIX_MAG =   1.60;   BMIX_MAG =  1.00
     AMIN     =   0.10
     WC   =   100.;   INIMIX=   1;  MIXPRE=   1;  MAXMIX= -45

 Intra band minimization:
   WEIMIN = 0.0000     energy-eigenvalue tresh-hold
   EBREAK =  0.15E-05  absolut break condition
   DEPER  =   0.30     relativ break condition

   TIME   =   0.40     timestep for ELM

  volume/ion in A,a.u.               =      10.99        74.13
  Fermi-wavevector in a.u.,A,eV,Ry     =   1.374379  2.597200 25.700282  1.888917
  Thomas-Fermi vector in A             =   2.499811

 Write flags
   LWAVE        =      F    write WAVECAR
   LDOWNSAMPLE  =      F    k-point downsampling of WAVECAR
   LCHARG       =      F    write CHGCAR
   LVTOT        =      F    write LOCPOT, total local potential
   LVHAR        =      F    write LOCPOT, Hartree potential only
   LELF         =      F    write electronic localiz. function (ELF)
   LORBIT       =     11    0 simple, 1 ext, 2 COOP (PROOUT), +10 PAW based schemes

 Dipole corrections
   LMONO  =      F    monopole corrections only (constant potential shift)
   LDIPOL =      F    correct potential (dipole corrections)
   IDIPOL =      0    1-x, 2-y, 3-z, 4-all directions
   EPSILON=  1.0000000 bulk dielectric constant

 LDA+U is selected, type is set to LDAUTYPE =  2
   angular momentum for each species LDAUL =     2   -1
   U (eV)           for each species LDAUU =   7.0  0.0
   J (eV)           for each species LDAUJ =   0.0  0.0
 Exchange correlation treatment:
   GGA     =    --    GGA type
   VOSKOWN=      0    Vosko Wilk Nusair interpolation
   LHFCALC =     F    Hartree Fock is set to
   LHFONE  =     F    Hartree Fock one center treatment
   AEXX    =    0.0000 exact exchange contribution

 Linear response parameters
   LEPSILON=     F    determine dielectric tensor
   LRPA    =     F    only Hartree local field effects (RPA)
   LNABLA  =     F    use nabla operator in PAW spheres
   LVEL    =     F    velocity operator in full k-point grid
   LINTERFAST=   F  fast interpolation
   KINTER  =     0    interpolate to denser k-point grid
   CSHIFT  =0.1000    complex shift for real part using Kramers Kronig
   OMEGAMAX=  -1.0    maximum frequency
   DEG_THRESHOLD= 0.2000000E-02 threshold for treating states as degnerate
   RTIME   =   -0.100 relaxation time in fs
  (WPLASMAI=    0.000 imaginary part of plasma frequency in eV, 0.658/RTIME)
[...]
 k-point 15 :   0.1795 0.1795 0.3590  plane waves:     799
 k-point 16 :   0.1923 0.1923 0.3846  plane waves:     799
 k-point 17 :   0.2051 0.2051 0.4103  plane waves:     801
 k-point 18 :   0.2179 0.2179 0.4359  plane waves:     802
 k-point 19 :   0.2308 0.2308 0.4615  plane waves:     810
 k-point 20 :   0.2436 0.2436 0.4872  plane waves:     820
 k-point 21 :   0.2564 0.2564 0.5128  plane waves:     820
 k-point 22 :   0.2692 0.2692 0.5385  plane waves:     814
 k-point 23 :   0.2821 0.2821 0.5641  plane waves:     814
 k-point 24 :   0.2949 0.2949 0.5897  plane waves:     813
 k-point 25 :   0.3077 0.3077 0.6154  plane waves:     799
 k-point 26 :   0.3205 0.3205 0.6410  plane waves:     799
 k-point 27 :   0.3333 0.3333 0.6667  plane waves:     803
 k-point 28 :   0.3462 0.3462 0.6923  plane waves:     801
 k-point 29 :   0.3590 0.3590 0.7179  plane waves:     802
 k-point 30 :   0.3718 0.3718 0.7436  plane waves:     802
 k-point 31 :   0.3846 0.3846 0.7692  plane waves:     795
 k-point 32 :   0.3974 0.3974 0.7949  plane waves:     795
 k-point 33 :   0.4103 0.4103 0.8205  plane waves:     796
 k-point 34 :   0.4231 0.4231 0.8462  plane waves:     795
 k-point 35 :   0.4359 0.4359 0.8718  plane waves:     797
 k-point 36 :   0.4487 0.4487 0.8974  plane waves:     793
 k-point 37 :   0.4615 0.4615 0.9231  plane waves:     793
 k-point 38 :   0.4744 0.4744 0.9487  plane waves:     791
 k-point 39 :   0.4872 0.4872 0.9744  plane waves:     786
 k-point 40 :   0.5000 0.5000 1.0000  plane waves:     780
 k-point 41 :   0.5000 0.5000 1.0000  plane waves:     780
 k-point 42 :   0.5128 0.5064 1.0064  plane waves:     780
 k-point 43 :   0.5256 0.5128 1.0128  plane waves:     786
 k-point 44 :   0.5385 0.5192 1.0192  plane waves:     791
 k-point 45 :   0.5513 0.5256 1.0256  plane waves:     791
 k-point 46 :   0.5641 0.5321 1.0321  plane waves:     797
 k-point 47 :   0.5769 0.5385 1.0385  plane waves:     797
 k-point 48 :   0.5897 0.5449 1.0449  plane waves:     797
 k-point 49 :   0.6026 0.5513 1.0513  plane waves:     797
 k-point 50 :   0.6154 0.5577 1.0577  plane waves:     803
 k-point 51 :   0.6282 0.5641 1.0641  plane waves:     803
 k-point 52 :   0.6410 0.5705 1.0705  plane waves:     801
 k-point 53 :   0.6538 0.5769 1.0769  plane waves:     805
 k-point 54 :   0.6667 0.5833 1.0833  plane waves:     803
 k-point 55 :   0.6795 0.5897 1.0897  plane waves:     806
 k-point 56 :   0.6923 0.5962 1.0962  plane waves:     804
 k-point 57 :   0.7051 0.6026 1.1026  plane waves:     803
 k-point 58 :   0.7179 0.6090 1.1090  plane waves:     803
 k-point 59 :   0.7308 0.6154 1.1154  plane waves:     803
 k-point 60 :   0.7436 0.6218 1.1218  plane waves:     803
[...]
 k-point 85 :   1.0128 0.7885 1.1987  plane waves:     795
 k-point 86 :   1.0160 0.7981 1.1859  plane waves:     795
 k-point 87 :   1.0192 0.8077 1.1731  plane waves:     795
 k-point 88 :   1.0224 0.8173 1.1603  plane waves:     791
 k-point 89 :   1.0256 0.8269 1.1474  plane waves:     790
 k-point 90 :   1.0288 0.8365 1.1346  plane waves:     788
 k-point 91 :   1.0321 0.8462 1.1218  plane waves:     792
 k-point 92 :   1.0353 0.8558 1.1090  plane waves:     790
 k-point 93 :   1.0385 0.8654 1.0962  plane waves:     790
 k-point 94 :   1.0417 0.8750 1.0833  plane waves:     793
 k-point 95 :   1.0449 0.8846 1.0705  plane waves:     786
 k-point 96 :   1.0481 0.8942 1.0577  plane waves:     785
 k-point 97 :   1.0513 0.9038 1.0449  plane waves:     786
 k-point 98 :   1.0545 0.9135 1.0321  plane waves:     785
 k-point 99 :   1.0577 0.9231 1.0192  plane waves:     788
 k-point ** :   1.0609 0.9327 1.0064  plane waves:     788
 k-point ** :   1.0641 0.9423 0.9936  plane waves:     788
 k-point ** :   1.0673 0.9519 0.9808  plane waves:     788
 k-point ** :   1.0705 0.9615 0.9679  plane waves:     791
 k-point ** :   1.0737 0.9712 0.9551  plane waves:     789
 k-point ** :   1.0769 0.9808 0.9423  plane waves:     788
 k-point ** :   1.0801 0.9904 0.9295  plane waves:     784
 k-point ** :   1.0833 1.0000 0.9167  plane waves:     781
 k-point ** :   1.0865 1.0096 0.9038  plane waves:     784
 k-point ** :   1.0897 1.0192 0.8910  plane waves:     784
 k-point ** :   1.0929 1.0288 0.8782  plane waves:     786
 k-point ** :   1.0962 1.0385 0.8654  plane waves:     790
 k-point ** :   1.0994 1.0481 0.8526  plane waves:     791
 k-point ** :   1.1026 1.0577 0.8397  plane waves:     792
 k-point ** :   1.1058 1.0673 0.8269  plane waves:     790
 k-point ** :   1.1090 1.0769 0.8141  plane waves:     790
 k-point ** :   1.1122 1.0865 0.8013  plane waves:     790
 k-point ** :   1.1154 1.0962 0.7885  plane waves:     794
 k-point ** :   1.1186 1.1058 0.7756  plane waves:     794
 k-point ** :   1.1218 1.1154 0.7628  plane waves:     794
 k-point ** :   1.1250 1.1250 0.7500  plane waves:     796
 k-point ** :   1.1250 1.1250 0.7500  plane waves:     796
 k-point ** :   1.0962 1.0962 0.7308  plane waves:     794
 k-point ** :   1.0673 1.0673 0.7115  plane waves:     798
 k-point ** :   1.0385 1.0385 0.6923  plane waves:     798
 k-point ** :   1.0096 1.0096 0.6731  plane waves:     801
 k-point ** :   0.9808 0.9808 0.6538  plane waves:     801
 k-point ** :   0.9519 0.9519 0.6346  plane waves:     803
 k-point ** :   0.9231 0.9231 0.6154  plane waves:     803
 k-point ** :   0.8942 0.8942 0.5962  plane waves:     802
 k-point ** :   0.8654 0.8654 0.5769  plane waves:     796
 k-point ** :   0.8365 0.8365 0.5577  plane waves:     804
 k-point ** :   0.8077 0.8077 0.5385  plane waves:     808
 k-point ** :   0.7788 0.7788 0.5192  plane waves:     815
 k-point ** :   0.7500 0.7500 0.5000  plane waves:     822
 k-point ** :   0.7212 0.7212 0.4808  plane waves:     815
 k-point ** :   0.6923 0.6923 0.4615  plane waves:     808
 k-point ** :   0.6635 0.6635 0.4423  plane waves:     804
 k-point ** :   0.6346 0.6346 0.4231  plane waves:     792
 k-point ** :   0.6058 0.6058 0.4038  plane waves:     794
 k-point ** :   0.5769 0.5769 0.3846  plane waves:     795
 k-point ** :   0.5481 0.5481 0.3654  plane waves:     795
 k-point ** :   0.5192 0.5192 0.3462  plane waves:     793
 k-point ** :   0.4904 0.4904 0.3269  plane waves:     789
 k-point ** :   0.4615 0.4615 0.3077  plane waves:     786
 k-point ** :   0.4327 0.4327 0.2885  plane waves:     782
 k-point ** :   0.4038 0.4038 0.2692  plane waves:     784
 k-point ** :   0.3750 0.3750 0.2500  plane waves:     786
 k-point ** :   0.3462 0.3462 0.2308  plane waves:     786
 k-point ** :   0.3173 0.3173 0.2115  plane waves:     781
 k-point ** :   0.2885 0.2885 0.1923  plane waves:     785
 k-point ** :   0.2596 0.2596 0.1731  plane waves:     791
 k-point ** :   0.2308 0.2308 0.1538  plane waves:     788
 k-point ** :   0.2019 0.2019 0.1346  plane waves:     788
 k-point ** :   0.1731 0.1731 0.1154  plane waves:     794
 k-point ** :   0.1442 0.1442 0.0962  plane waves:     796
 k-point ** :   0.1154 0.1154 0.0769  plane waves:     798
 k-point ** :   0.0865 0.0865 0.0577  plane waves:     802
 k-point ** :   0.0577 0.0577 0.0385  plane waves:     806
 k-point ** :   0.0288 0.0288 0.0192  plane waves:     806
[...]
 k-point ** :   0.6410 0.6410 0.6410  plane waves:     788
 k-point ** :   0.6667 0.6667 0.6667  plane waves:     788
 k-point ** :   0.6923 0.6923 0.6923  plane waves:     788
 k-point ** :   0.7179 0.7179 0.7179  plane waves:     785
 k-point ** :   0.7436 0.7436 0.7436  plane waves:     791
 k-point ** :   0.7692 0.7692 0.7692  plane waves:     797
 k-point ** :   0.7949 0.7949 0.7949  plane waves:     803
 k-point ** :   0.8205 0.8205 0.8205  plane waves:     800
 k-point ** :   0.8462 0.8462 0.8462  plane waves:     803
 k-point ** :   0.8718 0.8718 0.8718  plane waves:     806
 k-point ** :   0.8974 0.8974 0.8974  plane waves:     806
 k-point ** :   0.9231 0.9231 0.9231  plane waves:     806
 k-point ** :   0.9487 0.9487 0.9487  plane waves:     806
 k-point ** :   0.9744 0.9744 0.9744  plane waves:     803
 k-point ** :   1.0000 1.0000 1.0000  plane waves:     803

 maximum and minimum number of plane-waves per node :       822      780

 maximum number of plane-waves:       822
 maximum index in each direction:
   IXMAX=    8   IYMAX=    8   IZMAX=    8
   IXMIN=   -9   IYMIN=   -9   IZMIN=  -10

 serial   3D FFT for wavefunctions
 parallel 3D FFT for charge:
    minimum data exchange during FFTs selected (reduces bandwidth)

 initial charge density was supplied:
 number of electron      26.0000001 magnetization      -0.0000000
 keeping initial charge density in first step

 Maximum index for augmentation-charges        17719 (set IRDMAX)

 First call to EWALD:  gamma=   0.502
 Maximum number of real-space cells 3x 3x 3
 Maximum number of reciprocal cells 4x 4x 4

--------------------------------------- Iteration      1(   1)  ---------------------------------------

 eigenvalue-minimisations  : 13720
 total energy-change (2. order) : 0.2245957E+03  (-0.1056136E+04)
 number of electron      26.0000001 magnetization      -0.0000000
 augmentation part       26.0000001 magnetization      -0.0000000

 Free energy of the ion-electron system (eV)
  alpha Z        PSCENC =       119.80218577
  Ewald energy   TEWEN  =     -1558.68419992
  -Hartree energ DENC   =      -348.34403818
  -exchange      EXHF   =         0.00000000
  -V(xc)+E(xc)   XCENC  =        41.24596007
  PAW double counting   =      1235.83202134    -1181.37920284
  entropy T*S    EENTRO =        -0.00064122
  eigenvalues    EBANDS =       214.81257864
  atomic energy  EATOM  =      1701.31100873
  Solvation  Ediel_sol  =         0.00000000
  free energy    TOTEN  =       224.59567238 eV

  energy without entropy =      224.59631360  energy(sigma->0) =      224.59588612

[...]

 eigenvalue-minimisations  : 13706
 total energy-change (2. order) :-0.2098496E+03  (-0.2066490E+03)
 number of electron      26.0000001 magnetization      -0.0000000
 augmentation part       26.0000001 magnetization      -0.0000000

[...]

--------------------------------------- Iteration      1(   7)  ---------------------------------------

 eigenvalue-minimisations  : 16763
 total energy-change (2. order) :-0.7646960E-05  (-0.7645909E-05)
 number of electron      26.0000001 magnetization      -0.0000000
 augmentation part       26.0000001 magnetization      -0.0000000

 Free energy of the ion-electron system (eV)
  alpha Z        PSCENC =       119.80218577
  Ewald energy   TEWEN  =     -1558.68419992
  -Hartree energ DENC   =      -348.34403818
  -exchange      EXHF   =         0.00000000
  -V(xc)+E(xc)   XCENC  =        41.24596007
  PAW double counting   =      1235.83202134    -1181.37920284
  entropy T*S    EENTRO =         0.00489560
  eigenvalues    EBANDS =       -37.30514642
  atomic energy  EATOM  =      1701.31100873
  Solvation  Ediel_sol  =         0.00000000
  free energy    TOTEN  =       -27.51651586 eV

  energy without entropy =      -27.52141146  energy(sigma->0) =      -27.51814773

 average (electrostatic) potential at core
  the test charge radii are     1.0210  0.7215
  (the norm of the test charge is              1.0000)
       1 -44.3462       2 -44.3462       3 -70.8296       4 -70.8296

 E-fermi :   3.9340     XC(G=0): -11.5477     alpha+bet :-11.1101

 spin component 1

 k-point     1 :       0.0000    0.0000    0.0000
  band No.  band energies     occupation
      1     -13.8802      1.00000
      2     -12.8877      1.00000
      3      -2.3649      1.00000
      4      -1.2489      1.00000
      5      -1.2489      1.00000
      6      -0.1045      1.00000
      7      -0.1045      1.00000
      8       0.7587      1.00000
      9       2.6047      1.00000
     10       2.6047      1.00000
     11       2.6051      1.00000
     12       3.2911      1.00003
     13       3.2911      1.00003
     14       6.1121     -0.00000
     15       9.7826      0.00000
     16       9.9684      0.00000
     17       9.9688      0.00000

[...]

 spin component 2

[...]

 k-point   200 :       1.0000    1.0000    1.0000
  band No.  band energies     occupation
      1     -13.8802      1.00000
      2     -12.8877      1.00000
      3      -2.3649      1.00000
      4      -1.2489      1.00000
      5      -1.2489      1.00000
      6      -0.1045      1.00000
      7      -0.1045      1.00000
      8       0.7587      1.00000
      9       2.6047      1.00000
     10       2.6047      1.00000
     11       2.6051      1.00000
     12       3.2911      1.00003
     13       3.2911      1.00003
     14       6.1121     -0.00000
     15       9.7820      0.00000
     16       9.9634      0.00000
     17       9.9687      0.00000

 soft charge-density along one line, spin component           1
         0         1         2         3         4         5         6         7         8         9
 total charge-density along one line

 soft charge-density along one line, spin component           2
         0         1         2         3         4         5         6         7         8         9
 total charge-density along one line

------------------------ aborting loop because EDIFF is reached ----------------------------------------

 total charge

# of ion       s       p       d       tot
    1        0.225   0.179   4.992   5.397
    2        0.225   0.180   4.992   5.397
    3        1.550   3.620   0.000   5.170
    4        1.550   3.620   0.000   5.170
tot          3.550   7.599   9.985  21.134

 magnetization (x)

[...]

  FORCE on cell =-STRESS in cart. coord.  units (eV):
  Direction    XX          YY          ZZ          XY          YZ          ZX
  Alpha Z   119.80219   119.80219   119.80219
  Ewald    -519.56220  -519.56220  -519.56220    -0.00000    -0.00000    -0.00000
  Hartree   120.05661   120.05661   120.05661    -0.46268    -0.46268    -0.46268
  E(xc)    -131.08336  -131.08336  -131.08336     0.11401     0.11401     0.11401
  Local      32.12426    32.12426    32.12426     3.65222     3.65222     3.65222
  n-local  -103.52375  -103.21877  -100.58670     1.10626     0.10182     0.27588
  augment    77.43921    77.43921    77.43921    -0.32991    -0.32991    -0.32991
  Kinetic   409.27540   408.71123   402.53904    -7.08995    -0.84248    -1.95365
  Fock        0.00000     0.00000     0.00000     0.00000     0.00000     0.00000
  Total       3.17552     3.17552     3.17552     0.17326     0.17326     0.17326
  in kB     115.78346   115.78346   115.78346     6.31721     6.31721     6.31721

 VOLUME and BASIS-vectors are now :
  energy-cutoff  :      400.00
  volume of cell :       43.94
      direct lattice vectors                 reciprocal lattice vectors
     4.446000000  2.223000000  2.223000000     0.337381916 -0.112460639 -0.112460639
     2.223000000  4.446000000  2.223000000    -0.112460639  0.337381916 -0.112460639
     2.223000000  2.223000000  4.446000000    -0.112460639 -0.112460639  0.337381916

  length of vectors
     5.445215698  5.445215698  5.445215698     0.372989743  0.372989743  0.372989743

 FORCES acting on ions
    electron-ion (+dipol)            ewald-force                    non-local-force                 convergence-correction
   -.115E-12 0.132E-12 0.124E-12   -.142E-13 -.142E-13 -.142E-13   0.000E+00 0.000E+00 0.000E+00   0.728E-13 0.125E-12 0.912E-13
   0.684E-13 0.959E-12 0.664E-12   0.142E-13 0.142E-13 0.142E-13   0.635E-21 -.106E-20 -.847E-21   -.200E-12 -.243E-12 -.260E-12
   -.581E-13 0.482E-12 0.482E-12   -.929E-14 -.115E-13 -.107E-13   -.741E-21 -.582E-21 0.688E-21   -.116E-12 -.128E-12 -.106E-12
   0.154E-11 0.981E-13 0.101E-12   0.118E-13 0.109E-13 0.115E-13   0.847E-21 -.106E-20 -.424E-21   0.329E-13 0.456E-13 0.418E-13
   0.144E-11 0.167E-11 0.137E-11   0.246E-14 -.692E-15 0.721E-15   0.741E-21 -.270E-20 -.582E-21   -.210E-12 -.200E-12 -.233E-12

 POSITION                                       TOTAL-FORCE (eV/Angst)
      0.00000      0.00000      0.00000         0.000000      0.000000      0.000000
      4.44600      4.44600      4.44600        -0.000000      0.000000     -0.000000
      2.22300      2.22300      2.22300         0.000000     -0.000000     -0.000000
      6.66900      6.66900      6.66900        -0.000000     -0.000000      0.000000
    total drift:                                0.000000      0.000000      0.000000

  FREE ENERGIE OF THE ION-ELECTRON SYSTEM (eV)
  free  energy   TOTEN  =       -27.51651586 eV

  energy  without entropy=      -27.52141146  energy(sigma->0) =      -27.51814773

 total charge

[...]

 magnetization (x)

# of ion       s       p       d       tot
    1        0.022   0.015   4.648   4.685
    2       -0.022  -0.015  -4.648  -4.685
    3       -0.000   0.000   0.000   0.000
    4       -0.000   0.000   0.000  -0.000
tot         -0.000   0.000  -0.000  -0.000