 vasp.5.4.4.18Apr17-6-g9f103f2a35 (build May 20 2018 16:52:39) complex

 executed on             LinuxIFC date 2022.11.18  01:53:44

 INCAR:
 POTCAR:    PAW W

 POTCAR:    PAW W
   VRHFIN =W: 5p6s5d

   TITEL  = PAW W
   POMASS =  183.850; ZVAL   =    6.000    mass and valenz
   ENMAX  =  223.126; ENMIN  =  167.344 eV
   QCUT   =   -4.050; QGAM   =    8.099    optimization parameters

   Description
     l     E      TYP  RCUT    TYP  RCUT
     2   .000     23  2.500
     2   .000     23  2.500
     0   .000     23  2.500
     0   .000     23  2.500
     1   .200     23  2.750
     1  2.000     23  2.750
     3   .000      7   .000

  PAW W                                 :

 POSCAR: BCC W 7-layers
  positions in direct lattice
 exchange correlation table for  LEXCH =        2
   RHO(1)=    0.500       N(1)  =     2000
   RHO(2)=  100.500       N(2)  =     4000

 ion  position               nearest neighbor table
   1  0.000  0.000  0.000-   2 2.74   2 2.74   2 2.74   2 2.74   3 3.16
   2  0.500  0.500  0.083-   1 2.74   1 2.74   1 2.74   1 2.74   3 2.74   3 2.74   3 2.74   3 2.74
                             4 3.16
   3  0.000  0.000  0.167-   4 2.74   4 2.74   4 2.74   4 2.74   2 2.74   2 2.74   2 2.74   2 2.74
                             5 3.16   1 3.16
   4  0.500  0.500  0.250-   3 2.74   5 2.74   3 2.74   5 2.74   3 2.74   5 2.74   3 2.74   5 2.74
                             2 3.16   6 3.16
   5  0.000  0.000  0.333-   4 2.74   4 2.74   4 2.74   4 2.74   6 2.74   6 2.74   6 2.74   6 2.74
                             3 3.16   7 3.16
   6  0.500  0.500  0.417-   7 2.74   7 2.74   7 2.74   7 2.74   5 2.74   5 2.74   5 2.74   5 2.74
                             4 3.16
   7  0.000  0.000  0.500-   6 2.74   6 2.74   6 2.74   6 2.74   5 3.16

  LATTYP: Found a simple tetragonal cell.
 ALAT       =     3.1600000000
 C/A-ratio  =     6.0000000000

  Lattice vectors:

 A1 = (   3.1600000000,   0.0000000000,   0.0000000000)
 A2 = (   0.0000000000,   3.1600000000,   0.0000000000)
 A3 = (   0.0000000000,   0.0000000000,  18.9600000000)

Analysis of symmetry for initial positions (statically):
 Subroutine PRICEL returns:
 Original cell was already a primitive cell.

 Routine SETGRP: Setting up the symmetry group for a
 simple tetragonal supercell.

 Subroutine GETGRP returns: Found 16 space group operations
 (whereof  8 operations were pure point group operations)
 out of a pool of 16 trial point group operations.

The static configuration has the point symmetry C_4v.
 The point group associated with its full space group is D_4h.

Analysis of symmetry for dynamics (positions and initial velocities):
 Subroutine PRICEL returns:
 Original cell was already a primitive cell.

 Routine SETGRP: Setting up the symmetry group for a
 simple tetragonal supercell.

 Subroutine GETGRP returns: Found 16 space group operations
 (whereof  8 operations were pure point group operations)
 out of a pool of 16 trial point group operations.

The dynamic configuration has the point symmetry C_4v.
 The point group associated with its full space group is D_4h.

 Subroutine INISYM returns: Found 16 space group operations
 (whereof  8 operations are pure point group operations),
 and found     1 'primitive' translations

 KPOINTS: K-Path Generated by VASPKIT.
  interpolating k-points between supplied coordinates
  k-points in reciprocal lattice
Space group operators:
 irot       det(A)        alpha          n_x          n_y          n_z        tau_x        tau_y        tau_z
    1     1.000000     0.000000     1.000000     0.000000     0.000000     0.000000     0.000000     0.000000
    2     1.000000    90.000000     0.000000     0.000000    -1.000000     0.000000     0.000000     0.000000
    3     1.000000   180.000000     0.000000     0.000000     1.000000     0.000000     0.000000     0.000000
    4     1.000000    90.000000     0.000000     0.000000     1.000000     0.000000     0.000000     0.000000
    5    -1.000000   179.999999     0.000000     1.000000     0.000000     0.000000     0.000000     0.000000
    6    -1.000000   180.000000     0.707107     0.707107     0.000000     0.000000     0.000000     0.000000
    7    -1.000000   180.000000     1.000000     0.000000     0.000000     0.000000     0.000000     0.000000
    8    -1.000000   180.000000     0.707107    -0.707107     0.000000     0.000000     0.000000     0.000000
    9    -1.000000     0.000000     1.000000     0.000000     0.000000     0.000000     0.000000     0.500000
   10    -1.000000    90.000000     0.000000     0.000000    -1.000000     0.000000     0.000000     0.500000
   11    -1.000000   180.000000     0.000000     0.000000     1.000000     0.000000     0.000000     0.500000
   12    -1.000000    90.000000     0.000000     0.000000     1.000000     0.000000     0.000000     0.500000
   13     1.000000   179.999999     0.000000     1.000000     0.000000     0.000000     0.000000     0.500000
   14     1.000000   180.000000     0.707107     0.707107     0.000000     0.000000     0.000000     0.500000
   15     1.000000   180.000000     1.000000     0.000000     0.000000     0.000000     0.000000     0.500000
   16     1.000000   180.000000     0.707107    -0.707107     0.000000     0.000000     0.000000     0.500000

 SYSTEM =  unknown system
 POSCAR =  BCC W 7-layers

 Startparameter for this run:
   NWRITE =      2    write-flag & timer
   PREC   = normal    normal or accurate (medium, high low for compatibility)
   ISTART =      0    job   : 0-new  1-cont  2-samecut
   ICHARG =     11    charge: 1-file 2-atom 10-const
   ISPIN  =      1    spin polarized calculation?
   LNONCOLLINEAR =      F non collinear calculations
   LSORBIT =      F    spin-orbit coupling
   INIWAV =      1    electr: 0-lowe 1-rand  2-diag
   LASPH  =      F    aspherical Exc in radial PAW
   METAGGA=      F    non-selfconsistent MetaGGA calc.

 Electronic Relaxation 1
   ENCUT  =  600.0 eV  44.10 Ry    6.64 a.u.   6.31  6.31 37.87*2*pi/ulx,y,z
   ENINI  =  600.0     initial cutoff
   ENAUG  =  373.4 eV  augmentation charge cutoff
   NELM   =     60;   NELMIN=  2; NELMDL= -5     # of ELM steps
   EDIFF  = 0.1E-05   stopping-criterion for ELM
   LREAL  =      F    real-space projection
   NLSPLINE    = F    spline interpolate recip. space projectors
   LCOMPAT=      F    compatible to vasp.4.4
   GGA_COMPAT  = T    GGA compatible to vasp.4.4-vasp.4.6
   LMAXPAW     = -100 max onsite density
   LMAXMIX     =    2 max onsite mixed and CHGCAR
   VOSKOWN=      0    Vosko Wilk Nusair interpolation
   ROPT   =    0.00000
 Ionic relaxation
   EDIFFG = 0.1E-04   stopping-criterion for IOM
   NSW    =      0    number of steps for IOM
   NBLOCK =      1;   KBLOCK =      1    inner block; outer block
   IBRION =     -1    ionic relax: 0-MD 1-quasi-New 2-CG
   NFREE  =      0    steps in history (QN), initial steepest desc. (CG)
   ISIF   =      2    stress and relaxation
   IWAVPR =     10    prediction:  0-non 1-charg 2-wave 3-comb
   ISYM   =      2    0-nonsym 1-usesym 2-fastsym
   LCORR  =      T    Harris-Foulkes like correction to forces

   POTIM  = 0.5000    time-step for ionic-motion
   TEIN   =    0.0    initial temperature
   TEBEG  =    0.0;   TEEND  =   0.0 temperature during run
   SMASS  =  -3.00    Nose mass-parameter (am)
   estimated Nose-frequenzy (Omega)   =  0.10E-29 period in steps =****** mass=  -0.228E-27a.u.
   SCALEE = 1.0000    scale energy and forces
   NPACO  =    256;   APACO  = 16.0  distance and # of slots for P.C.
   PSTRESS=    0.0 pullay stress

  Mass of Ions in am
   POMASS = 183.85
  Ionic Valenz
   ZVAL   =   6.00
  Atomic Wigner-Seitz radii
  virtual crystal weights
   VCA    =   1.00
   NELECT =      42.0000    total number of electrons
   NUPDOWN=      -1.0000    fix difference up-down

 DOS related values:
   EMIN   =  10.00;   EMAX   =-10.00  energy-range for DOS
   EFERMI =   0.00
   ISMEAR =     0;   SIGMA  =   0.05  broadening in eV -4-tet -1-fermi 0-gaus

 Electronic relaxation 2 (details)
   IALGO  =     38    algorithm
   LDIAG  =      T    sub-space diagonalisation (order eigenvalues)
   LSUBROT=      F    optimize rotation matrix (better conditioning)
   TURBO    =      0    0=normal 1=particle mesh
   IRESTART =      0    0=no restart 2=restart with 2 vectors
   NREBOOT  =      0    no. of reboots
   NMIN     =      0    reboot dimension
   EREF     =   0.00    reference energy to select bands
   IMIX   =      4    mixing-type and parameters
     AMIX     =   0.40;   BMIX     =  1.00
     AMIX_MAG =   1.60;   BMIX_MAG =  1.00
     AMIN     =   0.10
     WC   =   100.;   INIMIX=   1;  MIXPRE=   1;  MAXMIX= -45

 Intra band minimization:
   WEIMIN = 0.0000     energy-eigenvalue tresh-hold
   EBREAK =  0.62E-08  absolut break condition
   DEPER  =   0.30     relativ break condition

   TIME   =   0.40     timestep for ELM

  volume/ion in A,a.u.               =      27.05       182.52
  Fermi-wavevector in a.u.,A,eV,Ry     =   0.991031  1.872776 13.362850  0.982142
  Thomas-Fermi vector in A             =   2.122743

 Write flags
   LWAVE        =      T    write WAVECAR
   LDOWNSAMPLE  =      F    k-point downsampling of WAVECAR
   LCHARG       =      F    write CHGCAR
   LVTOT        =      F    write LOCPOT, total local potential
   LVHAR        =      F    write LOCPOT, Hartree potential only
   LELF         =      F    write electronic localiz. function (ELF)
   LORBIT       =      0    0 simple, 1 ext, 2 COOP (PROOUT), +10 PAW based schemes

 Dipole corrections
   LMONO  =      F    monopole corrections only (constant potential shift)
   LDIPOL =      F    correct potential (dipole corrections)
   IDIPOL =      0    1-x, 2-y, 3-z, 4-all directions
   EPSILON=  1.0000000 bulk dielectric constant

 Exchange correlation treatment:
   GGA     =    --    GGA type
   VOSKOWN=      0    Vosko Wilk Nusair interpolation
   LHFCALC =     F    Hartree Fock is set to
   LHFONE  =     F    Hartree Fock one center treatment
   AEXX    =    0.0000 exact exchange contribution

 Linear response parameters
   LEPSILON=     F    determine dielectric tensor
   LRPA    =     F    only Hartree local field effects (RPA)
   LNABLA  =     F    use nabla operator in PAW spheres
   LVEL    =     F    velocity operator in full k-point grid
   LINTERFAST=   F  fast interpolation
   KINTER  =     0    interpolate to denser k-point grid
   CSHIFT  =0.1000    complex shift for real part using Kramers Kronig
   OMEGAMAX=  -1.0    maximum frequency
   DEG_THRESHOLD= 0.2000000E-02 threshold for treating states as degnerate
   RTIME   =   -0.100 relaxation time in fs
  (WPLASMAI=    0.000 imaginary part of plasma frequency in eV, 0.658/RTIME)
   DFIELD  = 0.0000000 0.0000000 0.0000000 field for delta impulse in time

 Orbital magnetization related:
   ORBITALMAG=     F  switch on orbital magnetization
   LCHIMAG   =     F  perturbation theory with respect to B field
   DQ        =  0.001000  dq finite difference perturbation B field
   LLRAUG    =     F  two centre corrections for induced B field

 Static calculation
 charge density and potential remain constant during run
 non-spin polarized calculation
 Variant of blocked Davidson
[...]
   0.23684211  0.00000000  0.00000000       0.017
   0.26315789  0.00000000  0.00000000       0.017
   0.28947368  0.00000000  0.00000000       0.017
   0.31578947  0.00000000  0.00000000       0.017
   0.34210526  0.00000000  0.00000000       0.017
   0.36842105  0.00000000  0.00000000       0.017
   0.39473684  0.00000000  0.00000000       0.017
   0.42105263  0.00000000  0.00000000       0.017
   0.44736842  0.00000000  0.00000000       0.017
   0.47368421  0.00000000  0.00000000       0.017
   0.50000000  0.00000000  0.00000000       0.017
   0.50000000  0.00000000  0.00000000       0.017
   0.50000000  0.02631579  0.00000000       0.017
   0.50000000  0.05263158  0.00000000       0.017
   0.50000000  0.07894737  0.00000000       0.017
   0.50000000  0.10526316  0.00000000       0.017
   0.50000000  0.13157895  0.00000000       0.017
   0.50000000  0.15789474  0.00000000       0.017
   0.50000000  0.18421053  0.00000000       0.017
   0.50000000  0.21052632  0.00000000       0.017
   0.50000000  0.23684211  0.00000000       0.017
   0.50000000  0.26315789  0.00000000       0.017
   0.50000000  0.28947368  0.00000000       0.017
   0.50000000  0.31578947  0.00000000       0.017
   0.50000000  0.34210526  0.00000000       0.017
   0.50000000  0.36842105  0.00000000       0.017
   0.50000000  0.39473684  0.00000000       0.017
   0.50000000  0.42105263  0.00000000       0.017
   0.50000000  0.44736842  0.00000000       0.017
   0.50000000  0.47368421  0.00000000       0.017
   0.50000000  0.50000000  0.00000000       0.017
   0.50000000  0.50000000  0.00000000       0.017
   0.47368421  0.47368421  0.00000000       0.017
   0.44736842  0.44736842  0.00000000       0.017
   0.42105263  0.42105263  0.00000000       0.017
   0.39473684  0.39473684  0.00000000       0.017
   0.36842105  0.36842105  0.00000000       0.017
   0.34210526  0.34210526  0.00000000       0.017
   0.31578947  0.31578947  0.00000000       0.017
   0.28947368  0.28947368  0.00000000       0.017
   0.26315789  0.26315789  0.00000000       0.017
   0.23684211  0.23684211  0.00000000       0.017
   0.21052632  0.21052632  0.00000000       0.017
   0.18421053  0.18421053  0.00000000       0.017
   0.15789474  0.15789474  0.00000000       0.017
   0.13157895  0.13157895  0.00000000       0.017
   0.10526316  0.10526316  0.00000000       0.017
   0.07894737  0.07894737  0.00000000       0.017
   0.05263158  0.05263158  0.00000000       0.017
   0.02631579  0.02631579  0.00000000       0.017
   0.00000000  0.00000000  0.00000000       0.017

 position of ions in fractional coordinates (direct lattice)
   0.00000000  0.00000000  0.00000000
   0.50000000  0.50000000  0.08333333
   0.00000000  0.00000000  0.16666667
   0.50000000  0.50000000  0.25000000
   0.00000000  0.00000000  0.33333333
   0.50000000  0.50000000  0.41666667
   0.00000000  0.00000000  0.50000000

 position of ions in cartesian coordinates  (Angst):
   0.00000000  0.00000000  0.00000000
   1.58000000  1.58000000  1.58000000
   0.00000000  0.00000000  3.16000000
   1.58000000  1.58000000  4.74000000
   0.00000000  0.00000000  6.32000000
   1.58000000  1.58000000  7.90000000
   0.00000000  0.00000000  9.48000000

 k-point  1 :   0.0000 0.0000 0.0000  plane waves:    6283
 k-point  2 :   0.0263 0.0000 0.0000  plane waves:    6277
 k-point  3 :   0.0526 0.0000 0.0000  plane waves:    6287
 k-point  4 :   0.0789 0.0000 0.0000  plane waves:    6311
 k-point  5 :   0.1053 0.0000 0.0000  plane waves:    6311
 k-point  6 :   0.1316 0.0000 0.0000  plane waves:    6321
 k-point  7 :   0.1579 0.0000 0.0000  plane waves:    6341
 k-point  8 :   0.1842 0.0000 0.0000  plane waves:    6335
 k-point  9 :   0.2105 0.0000 0.0000  plane waves:    6335
 k-point 10 :   0.2368 0.0000 0.0000  plane waves:    6341
 k-point 11 :   0.2632 0.0000 0.0000  plane waves:    6337
 k-point 12 :   0.2895 0.0000 0.0000  plane waves:    6349
 k-point 13 :   0.3158 0.0000 0.0000  plane waves:    6338
 k-point 14 :   0.3421 0.0000 0.0000  plane waves:    6358
 k-point 15 :   0.3684 0.0000 0.0000  plane waves:    6352
 k-point 16 :   0.3947 0.0000 0.0000  plane waves:    6348
 k-point 17 :   0.4211 0.0000 0.0000  plane waves:    6352
 k-point 18 :   0.4474 0.0000 0.0000  plane waves:    6346
 k-point 19 :   0.4737 0.0000 0.0000  plane waves:    6352
 k-point 20 :   0.5000 0.0000 0.0000  plane waves:    6352
 k-point 21 :   0.5000 0.0000 0.0000  plane waves:    6352
 k-point 22 :   0.5000 0.0263 0.0000  plane waves:    6356
 k-point 23 :   0.5000 0.0526 0.0000  plane waves:    6344
 k-point 24 :   0.5000 0.0789 0.0000  plane waves:    6332
 k-point 25 :   0.5000 0.1053 0.0000  plane waves:    6334
 k-point 26 :   0.5000 0.1316 0.0000  plane waves:    6320
 k-point 27 :   0.5000 0.1579 0.0000  plane waves:    6336
 k-point 28 :   0.5000 0.1842 0.0000  plane waves:    6336
 k-point 29 :   0.5000 0.2105 0.0000  plane waves:    6326
 k-point 30 :   0.5000 0.2368 0.0000  plane waves:    6314
 k-point 31 :   0.5000 0.2632 0.0000  plane waves:    6296
 k-point 32 :   0.5000 0.2895 0.0000  plane waves:    6292
 k-point 33 :   0.5000 0.3158 0.0000  plane waves:    6302
 k-point 34 :   0.5000 0.3421 0.0000  plane waves:    6294
 k-point 35 :   0.5000 0.3684 0.0000  plane waves:    6290
 k-point 36 :   0.5000 0.3947 0.0000  plane waves:    6306
 k-point 37 :   0.5000 0.4211 0.0000  plane waves:    6298
 k-point 38 :   0.5000 0.4474 0.0000  plane waves:    6280
 k-point 39 :   0.5000 0.4737 0.0000  plane waves:    6296
 k-point 40 :   0.5000 0.5000 0.0000  plane waves:    6280
 k-point 41 :   0.5000 0.5000 0.0000  plane waves:    6280
 k-point 42 :   0.4737 0.4737 0.0000  plane waves:    6292
 k-point 43 :   0.4474 0.4474 0.0000  plane waves:    6299
 k-point 44 :   0.4211 0.4211 0.0000  plane waves:    6281
 k-point 45 :   0.3947 0.3947 0.0000  plane waves:    6279
 k-point 46 :   0.3684 0.3684 0.0000  plane waves:    6281
 k-point 47 :   0.3421 0.3421 0.0000  plane waves:    6297
 k-point 48 :   0.3158 0.3158 0.0000  plane waves:    6291
 k-point 49 :   0.2895 0.2895 0.0000  plane waves:    6299
 k-point 50 :   0.2632 0.2632 0.0000  plane waves:    6295
 k-point 51 :   0.2368 0.2368 0.0000  plane waves:    6321
 k-point 52 :   0.2105 0.2105 0.0000  plane waves:    6327
 k-point 53 :   0.1842 0.1842 0.0000  plane waves:    6319
 k-point 54 :   0.1579 0.1579 0.0000  plane waves:    6343
 k-point 55 :   0.1316 0.1316 0.0000  plane waves:    6331
 k-point 56 :   0.1053 0.1053 0.0000  plane waves:    6323
 k-point 57 :   0.0789 0.0789 0.0000  plane waves:    6321
 k-point 58 :   0.0526 0.0526 0.0000  plane waves:    6301
 k-point 59 :   0.0263 0.0263 0.0000  plane waves:    6291
 k-point 60 :   0.0000 0.0000 0.0000  plane waves:    6283

 maximum and minimum number of plane-waves per node :      6358     6277

 maximum number of plane-waves:      6358
 maximum index in each direction:
   IXMAX=    6   IYMAX=    6   IZMAX=   37
   IXMIN=   -6   IYMIN=   -6   IZMIN=  -37

 serial   3D FFT for wavefunctions
 parallel 3D FFT for charge:
    minimum data exchange during FFTs selected (reduces bandwidth)

 initial charge density was supplied:
 number of electron      42.0000002 magnetization
 keeping initial charge density in first step

 Maximum index for augmentation-charges          697 (set IRDMAX)

 First call to EWALD:  gamma=   0.309
 Maximum number of real-space cells 5x 5x 1
 Maximum number of reciprocal cells 2x 2x 8

--------------------------------------- Iteration      1(   1)  ---------------------------------------

 eigenvalue-minimisations  :  4800
 total energy-change (2. order) : 0.1065348E+03  (-0.1973983E+04)
 number of electron      42.0000002 magnetization
 augmentation part       42.0000002 magnetization

 Free energy of the ion-electron system (eV)
  alpha Z        PSCENC =       180.65856384
  Ewald energy   TEWEN  =      2440.32004124
  -Hartree energ DENC   =     -4215.02958370
  -exchange      EXHF   =         0.00000000
  -V(xc)+E(xc)   XCENC  =      -330.05718967
  PAW double counting   =      1595.62977921    -1201.20135080
  entropy T*S    EENTRO =        -0.00290920
  eigenvalues    EBANDS =       190.46220560
  atomic energy  EATOM  =      1445.75525229
  Solvation  Ediel_sol  =         0.00000000
  free energy    TOTEN  =       106.53480881 eV

  energy without entropy =      106.53771801  energy(sigma->0) =      106.53626341

[...]

 eigenvalue-minimisations  :  9200
 total energy-change (2. order) :-0.1962884E+03  (-0.1944304E+03)
 number of electron      42.0000002 magnetization
 augmentation part       42.0000002 magnetization

[...]

--------------------------------------- Iteration      1(   6)  ---------------------------------------

 eigenvalue-minimisations  :  9440
 total energy-change (2. order) :-0.1609951E-06  (-0.1613833E-06)
 number of electron      42.0000002 magnetization
 augmentation part       42.0000002 magnetization

 Free energy of the ion-electron system (eV)
  alpha Z        PSCENC =       180.65856384
  Ewald energy   TEWEN  =      2440.32004124
  -Hartree energ DENC   =     -4215.02958370
  -exchange      EXHF   =         0.00000000
  -V(xc)+E(xc)   XCENC  =      -330.05718967
  PAW double counting   =      1595.62977921    -1201.20135080
  entropy T*S    EENTRO =        -0.00707674
  eigenvalues    EBANDS =        -8.72478889
  atomic energy  EATOM  =      1445.75525229
  Solvation  Ediel_sol  =         0.00000000
  free energy    TOTEN  =       -92.65635322 eV

  energy without entropy =      -92.64927648  energy(sigma->0) =      -92.65281485

 average (electrostatic) potential at core
  the test charge radii are     1.1823
  (the norm of the test charge is              1.0000)
       1 -43.1512       2 -43.0849       3 -43.2416       4 -43.0789       5 -43.2416
       6 -43.0849       7 -43.1512

 E-fermi :   2.8060     XC(G=0):  -9.0304     alpha+bet : -8.6250

 k-point     1 :       0.0000    0.0000    0.0000
  band No.  band energies     occupation
      1      -6.2949      2.00000
      2      -5.1538      2.00000
      3      -3.6053      2.00000
      4      -2.7736      2.00000
      5      -2.6518      2.00000
      6      -2.2390      2.00000
      7      -2.0687      2.00000
      8      -1.6895      2.00000
      9      -1.3262      2.00000
     10      -0.9650      2.00000
     11       0.3349      2.00000
     12       1.5427      2.00000
     13       1.5427      2.00000
     14       1.6807      2.00000
     15       1.6807      2.00000
     16       1.7701      2.00000
     17       1.8772      2.00000
     18       2.1102      2.00000
     19       2.1102      2.00000
     20       2.4062      2.00000
     21       2.4382      2.00000
     22       2.5154      2.00000
     23       2.7723      1.65921
     24       2.7723      1.65921
     25       3.3904      0.00000
     26       3.4009      0.00000
     27       3.8856      0.00000
     28       3.8856      0.00000
     29       4.4948      0.00000
     30       4.5909      0.00000
     31       5.2999      0.00000
     32       5.4241      0.00000
     33       5.4241      0.00000
     34       5.7744      0.00000
     35       5.8963      0.00000
     36       6.3064      0.00000
     37       6.7120      0.00000
     38       6.7175      0.00000
     39       6.9139      0.00000
     40       7.1028      0.00000

[...]

 k-point    60 :       0.0000    0.0000    0.0000
  band No.  band energies     occupation
      1      -6.2949      2.00000
      2      -5.1538      2.00000
      3      -3.6053      2.00000
      4      -2.7736      2.00000
      5      -2.6518      2.00000
      6      -2.2390      2.00000
      7      -2.0687      2.00000
      8      -1.6895      2.00000
      9      -1.3262      2.00000
     10      -0.9650      2.00000
     11       0.3349      2.00000
     12       1.5427      2.00000
     13       1.5427      2.00000
     14       1.6807      2.00000
     15       1.6807      2.00000
     16       1.7701      2.00000
     17       1.8772      2.00000
     18       2.1102      2.00000
     19       2.1102      2.00000
     20       2.4062      2.00000
     21       2.4382      2.00000
     22       2.5154      2.00000
     23       2.7723      1.65921
     24       2.7723      1.65921
     25       3.3904      0.00000
     26       3.4009      0.00000
     27       3.8856      0.00000
     28       3.8856      0.00000
     29       4.4948      0.00000
     30       4.5909      0.00000
     31       5.2999      0.00000
     32       5.4241      0.00000
     33       5.4241      0.00000
     34       5.7744      0.00000
     35       5.8963      0.00000
     36       6.3064      0.00000
     37       6.7120      0.00000
     38       6.7175      0.00000
     39       6.9137      0.00000
     40       7.1028      0.00000

 soft charge-density along one line, spin component           1
         0         1         2         3         4         5         6         7         8         9
 total charge-density along one line

------------------------ aborting loop because EDIFF is reached ----------------------------------------

  FORCE on cell =-STRESS in cart. coord.  units (eV):
  Direction    XX          YY          ZZ          XY          YZ          ZX
  Alpha Z   180.65856   180.65856   180.65856
  Ewald    3798.59004  3798.59004 -5156.86231     0.00000     0.00000    -0.00000
  Hartree  4192.44286  4192.44286 -4175.12469    -0.00000    -0.00000    -0.00000
  E(xc)    -186.88935  -186.88935  -186.89324    -0.00000     0.00000    -0.00000
  Local   -8481.95390 -8481.95390  8835.57391     0.00000     0.00000    -0.00000
  n-local  -108.56117   -92.50443  -101.80953     1.94606    -0.00000     0.00000
  augment    37.15654    37.15654    37.10891     0.00000     0.00000     0.00000
  Kinetic   521.07505   569.87800   556.80650     2.07361     0.00000     0.00000
  Fock        0.00000     0.00000     0.00000     0.00000     0.00000     0.00000
  Total     -15.05152   -15.05152   -10.54189     0.00000    -0.00000     0.00000
  in kB    -127.37335  -127.37335   -89.21058     0.00000    -0.00000     0.00000

 VOLUME and BASIS-vectors are now :
  energy-cutoff  :      600.00
  volume of cell :      189.33
      direct lattice vectors                 reciprocal lattice vectors
     3.160000000  0.000000000  0.000000000     0.316455696  0.000000000  0.000000000
     0.000000000  3.160000000  0.000000000     0.000000000  0.316455696  0.000000000
     0.000000000  0.000000000 18.960000000     0.000000000  0.000000000  0.052742616

  length of vectors
     3.160000000  3.160000000 18.960000000     0.316455696  0.316455696  0.052742616

 FORCES acting on ions
    electron-ion (+dipol)            ewald-force                    non-local-force                 convergence-correction
   -.296E-14 -.521E-15 0.782E+03   0.639E-14 -.114E-14 -.777E+03   0.000E+00 0.132E-22 -.424E+01   0.126E-14 0.763E-14 0.136E+01
   -.147E-14 -.122E-15 0.550E+03   0.206E-14 -.218E-14 -.546E+03   -.662E-23 0.000E+00 -.289E+00   -.161E-13 -.111E-13 -.442E+01
   -.104E-14 0.406E-14 0.276E+03   0.505E-14 -.214E-14 -.272E+03   0.000E+00 0.000E+00 -.804E+00   0.571E-14 0.543E-14 -.345E+01
   -.149E-14 -.154E-13 0.117E-11   0.337E-14 -.196E-14 0.000E+00   0.000E+00 0.000E+00 -.331E-23   0.287E-14 0.939E-14 0.498E-12
   -.424E-15 0.543E-14 -.276E+03   0.170E-14 -.179E-14 0.272E+03   0.000E+00 0.000E+00 0.804E+00   -.184E-14 -.672E-15 0.345E+01
   -.561E-15 -.247E-13 -.550E+03   0.469E-14 -.174E-14 0.546E+03   0.662E-23 0.000E+00 0.289E+00   0.308E-14 -.506E-14 0.442E+01
   -.118E-15 0.388E-14 -.782E+03   0.349E-15 -.278E-14 0.777E+03   0.000E+00 0.132E-22 0.424E+01   -.189E-14 0.239E-15 -.136E+01
   -.807E-14 -.274E-13 0.253E-11   0.236E-13 -.137E-13 -.114E-12   0.000E+00 0.265E-22 -.888E-15   -.686E-14 0.583E-14 -.414E-12

 POSITION                                       TOTAL-FORCE (eV/Angst)
      0.00000      0.00000      0.00000        -0.000000     -0.000000      1.683970
      1.58000      1.58000      1.58000        -0.000000     -0.000000     -0.890303
      0.00000      0.00000      3.16000        -0.000000     -0.000000     -0.195271
      1.58000      1.58000      4.74000         0.000000     -0.000000      0.000000
      0.00000      0.00000      6.32000        -0.000000      0.000000      0.195271
      1.58000      1.58000      7.90000        -0.000000     -0.000000      0.890303
      0.00000      0.00000      9.48000        -0.000000     -0.000000     -1.683970
    total drift:                                0.000000     -0.000000      0.000000

  FREE ENERGIE OF THE ION-ELECTRON SYSTEM (eV)
  free  energy   TOTEN  =       -92.65635322 eV

  energy  without entropy=      -92.64927648  energy(sigma->0) =      -92.65281485

 writing wavefunctions