 vasp.5.4.4.18Apr17-6-g9f103f2a35 (build May 20 2018 16:52:39) complex

 executed on             LinuxIFC date 2022.10.31  01:21:48

 INCAR:
 POTCAR:    PAW Ge
 POTCAR:    PAW Ge
   VRHFIN =Ge: s2p2

   TITEL  = PAW Ge
   POMASS =   72.610; ZVAL   =    4.000    mass and valenz
   ENMAX  =  173.845; ENMIN  =  130.384 eV
   QCUT   =   -3.575; QGAM   =    7.149    optimization parameters

   Description
     l     E      TYP  RCUT    TYP  RCUT
     0   .000     23  2.300
     0   .000     23  2.300
     1   .000     23  2.300
     1   .000     23  2.300
     2   .000     23  2.300
     3  -.100      7  2.300

  PAW Ge                                :

 POSCAR: Ge
  positions in direct lattice
 exchange correlation table for  LEXCH =        7
   RHO(1)=    0.500       N(1)  =     2000
   RHO(2)=  100.500       N(2)  =     4000

 ion  position               nearest neighbor table
   1  0.000  0.000  0.000-   2 2.50   2 2.50   2 2.50   2 2.50
   2  0.250  0.250  0.250-   1 2.50   1 2.50   1 2.50   1 2.50

  LATTYP: Found a face centered cubic cell.
 ALAT       =     5.7700000000

  Lattice vectors:

 A1 = (   0.0000000000,   2.8850000000,   2.8850000000)
 A2 = (   2.8850000000,   0.0000000000,   2.8850000000)
 A3 = (   2.8850000000,   2.8850000000,   0.0000000000)

Analysis of symmetry for initial positions (statically):
 Subroutine PRICEL returns:
 Original cell was already a primitive cell.

 Routine SETGRP: Setting up the symmetry group for a
 face centered cubic supercell.

 Subroutine GETGRP returns: Found 48 space group operations
 (whereof 24 operations were pure point group operations)
 out of a pool of 48 trial point group operations.

The static configuration has the point symmetry T_d .
 The point group associated with its full space group is O_h .

Analysis of symmetry for dynamics (positions and initial velocities):
 Subroutine PRICEL returns:
 Original cell was already a primitive cell.

 Routine SETGRP: Setting up the symmetry group for a
 face centered cubic supercell.

 Subroutine GETGRP returns: Found 48 space group operations
 (whereof 24 operations were pure point group operations)
 out of a pool of 48 trial point group operations.

The dynamic configuration has the point symmetry T_d .
 The point group associated with its full space group is O_h .

 Subroutine INISYM returns: Found 48 space group operations
 (whereof 24 operations are pure point group operations),
 and found     1 'primitive' translations

 KPOINTS: 30x30x30

Automatic generation of k-mesh.
Space group operators:
 irot       det(A)        alpha          n_x          n_y          n_z        tau_x        tau_y        tau_z
    1     1.000000     0.000000     1.000000     0.000000     0.000000     0.000000     0.000000     0.000000
    2     1.000000   120.000000    -0.577350    -0.577350    -0.577350     0.000000     0.000000     0.000000
    3     1.000000   120.000000     0.577350     0.577350     0.577350     0.000000     0.000000     0.000000
    4    -1.000000    90.000000     0.000000     0.000000    -1.000000     0.000000     0.000000     0.000000
    5    -1.000000   180.000000     0.000000     0.707107     0.707107     0.000000     0.000000     0.000000
    6    -1.000000    90.000000     0.000000     1.000000     0.000000     0.000000     0.000000     0.000000
    7     1.000000   180.000000     0.000000     0.000000     1.000000     0.000000     0.000000     0.000000
    8     1.000000   120.000000    -0.577350     0.577350     0.577350     0.000000     0.000000     0.000000
    9     1.000000   120.000000    -0.577350     0.577350    -0.577350     0.000000     0.000000     0.000000
   10    -1.000000    90.000000     0.000000     0.000000     1.000000     0.000000     0.000000     0.000000
   11    -1.000000    90.000000    -1.000000     0.000000     0.000000     0.000000     0.000000     0.000000
   12    -1.000000   180.000000     0.707107     0.000000     0.707107     0.000000     0.000000     0.000000
   13     1.000000   120.000000     0.577350    -0.577350     0.577350     0.000000     0.000000     0.000000
   14     1.000000   120.000000    -0.577350    -0.577350     0.577350     0.000000     0.000000     0.000000
   15     1.000000   180.000000     1.000000     0.000000     0.000000     0.000000     0.000000     0.000000
   16    -1.000000    90.000000     0.000000    -1.000000     0.000000     0.000000     0.000000     0.000000
   17    -1.000000   180.000000     0.707107     0.707107     0.000000     0.000000     0.000000     0.000000
   18    -1.000000    90.000000     1.000000     0.000000     0.000000     0.000000     0.000000     0.000000
   19     1.000000   120.000000     0.577350    -0.577350    -0.577350     0.000000     0.000000     0.000000
   20     1.000000   180.000000     0.000000     1.000000     0.000000     0.000000     0.000000     0.000000
   21     1.000000   120.000000     0.577350     0.577350    -0.577350     0.000000     0.000000     0.000000
   22    -1.000000   180.000000     0.000000    -0.707107     0.707107     0.000000     0.000000     0.000000
   23    -1.000000   180.000000     0.707107    -0.707107     0.000000     0.000000     0.000000     0.000000
   24    -1.000000   180.000000     0.707107     0.000000    -0.707107     0.000000     0.000000     0.000000
   25    -1.000000     0.000000     1.000000     0.000000     0.000000     0.250000     0.250000     0.250000
   26    -1.000000   120.000000    -0.577350    -0.577350    -0.577350     0.250000     0.250000     0.250000
   27    -1.000000   120.000000     0.577350     0.577350     0.577350     0.250000     0.250000     0.250000
   28     1.000000    90.000000     0.000000     0.000000    -1.000000     0.250000     0.250000     0.250000
   29     1.000000   180.000000     0.000000     0.707107     0.707107     0.250000     0.250000     0.250000
   30     1.000000    90.000000     0.000000     1.000000     0.000000     0.250000     0.250000     0.250000
   31    -1.000000   180.000000     0.000000     0.000000     1.000000     0.250000     0.250000     0.250000
   32    -1.000000   120.000000    -0.577350     0.577350     0.577350     0.250000     0.250000     0.250000
   33    -1.000000   120.000000    -0.577350     0.577350    -0.577350     0.250000     0.250000     0.250000
   34     1.000000    90.000000     0.000000     0.000000     1.000000     0.250000     0.250000     0.250000
   35     1.000000    90.000000    -1.000000     0.000000     0.000000     0.250000     0.250000     0.250000
   36     1.000000   180.000000     0.707107     0.000000     0.707107     0.250000     0.250000     0.250000
   37    -1.000000   120.000000     0.577350    -0.577350     0.577350     0.250000     0.250000     0.250000
   38    -1.000000   120.000000    -0.577350    -0.577350     0.577350     0.250000     0.250000     0.250000
   39    -1.000000   180.000000     1.000000     0.000000     0.000000     0.250000     0.250000     0.250000
   40     1.000000    90.000000     0.000000    -1.000000     0.000000     0.250000     0.250000     0.250000
   41     1.000000   180.000000     0.707107     0.707107     0.000000     0.250000     0.250000     0.250000
   42     1.000000    90.000000     1.000000     0.000000     0.000000     0.250000     0.250000     0.250000
   43    -1.000000   120.000000     0.577350    -0.577350    -0.577350     0.250000     0.250000     0.250000
   44    -1.000000   180.000000     0.000000     1.000000     0.000000     0.250000     0.250000     0.250000
   45    -1.000000   120.000000     0.577350     0.577350    -0.577350     0.250000     0.250000     0.250000
   46     1.000000   180.000000     0.000000    -0.707107     0.707107     0.250000     0.250000     0.250000
   47     1.000000   180.000000     0.707107    -0.707107     0.000000     0.250000     0.250000     0.250000
   48     1.000000   180.000000     0.707107     0.000000    -0.707107     0.250000     0.250000     0.250000

 Subroutine IBZKPT returns following result:

 Found   2480 irreducible k-points:

 Following reciprocal coordinates:
            Coordinates               Weight
  0.016667  0.016667  0.016667     96.000000
  0.050000  0.016667  0.016667    288.000000
  0.083333  0.016667  0.016667    288.000000
  0.116667  0.016667  0.016667    288.000000
  0.150000  0.016667  0.016667    288.000000
  0.183333  0.016667  0.016667    288.000000
  0.216667  0.016667  0.016667    288.000000
  0.250000  0.016667  0.016667    288.000000
  0.283333  0.016667  0.016667    288.000000
  0.316667  0.016667  0.016667    288.000000
  0.350000  0.016667  0.016667    288.000000
  0.383333  0.016667  0.016667    288.000000
  0.416667  0.016667  0.016667    288.000000
  0.450000  0.016667  0.016667    288.000000
  0.483333  0.016667  0.016667    288.000000
 -0.483333  0.016667  0.016667    288.000000
 -0.450000  0.016667  0.016667    288.000000
 -0.416667  0.016667  0.016667    288.000000
 -0.383333  0.016667  0.016667    288.000000
 -0.350000  0.016667  0.016667    288.000000
 -0.316667  0.016667  0.016667    288.000000
 -0.283333  0.016667  0.016667    288.000000
 -0.250000  0.016667  0.016667    288.000000
 -0.216667  0.016667  0.016667    288.000000
 -0.183333  0.016667  0.016667    288.000000
 -0.150000  0.016667  0.016667    288.000000
 -0.116667  0.016667  0.016667    288.000000
 -0.083333  0.016667  0.016667    288.000000
 -0.050000  0.016667  0.016667    288.000000
 -0.016667  0.016667  0.016667    288.000000
  0.050000  0.050000  0.016667    288.000000
  0.083333  0.050000  0.016667    576.000000
  0.116667  0.050000  0.016667    576.000000
  0.150000  0.050000  0.016667    576.000000
  0.183333  0.050000  0.016667    576.000000
  0.216667  0.050000  0.016667    576.000000
  0.250000  0.050000  0.016667    576.000000
  0.283333  0.050000  0.016667    576.000000
  0.316667  0.050000  0.016667    576.000000
  0.350000  0.050000  0.016667    576.000000
  0.383333  0.050000  0.016667    576.000000
  0.416667  0.050000  0.016667    576.000000
  0.450000  0.050000  0.016667    576.000000
  0.483333  0.050000  0.016667    576.000000
 -0.483333  0.050000  0.016667    576.000000
 -0.450000  0.050000  0.016667    576.000000
 -0.416667  0.050000  0.016667    576.000000
 -0.383333  0.050000  0.016667    576.000000
 -0.350000  0.050000  0.016667    576.000000
 -0.316667  0.050000  0.016667    576.000000
 -0.283333  0.050000  0.016667    576.000000
 -0.250000  0.050000  0.016667    576.000000
 -0.216667  0.050000  0.016667    576.000000
 -0.183333  0.050000  0.016667    576.000000
 -0.150000  0.050000  0.016667    576.000000
 -0.116667  0.050000  0.016667    576.000000
 -0.083333  0.050000  0.016667    576.000000
 -0.050000  0.050000  0.016667    576.000000
 -0.016667  0.050000  0.016667    576.000000
  0.083333  0.083333  0.016667    288.000000
[...]
 -0.450000  0.483333  0.416667    576.000000
 -0.416667  0.483333  0.416667    576.000000
 -0.483333 -0.483333  0.416667    288.000000
 -0.450000 -0.483333  0.416667    576.000000
 -0.450000 -0.450000  0.416667    288.000000
  0.450000  0.450000  0.450000     96.000000
  0.483333  0.450000  0.450000    288.000000
 -0.483333  0.450000  0.450000    288.000000
[...]
[...]
 k-point 85 :  -0.0833 0.0833 0.0167  plane waves:     264
 k-point 86 :  -0.0500 0.0833 0.0167  plane waves:     263
 k-point 87 :  -0.0167 0.0833 0.0167  plane waves:     261
 k-point 88 :   0.1167 0.1167 0.0167  plane waves:     262
 k-point 89 :   0.1500 0.1167 0.0167  plane waves:     262
 k-point 90 :   0.1833 0.1167 0.0167  plane waves:     260
 k-point 91 :   0.2167 0.1167 0.0167  plane waves:     256
 k-point 92 :   0.2500 0.1167 0.0167  plane waves:     254
 k-point 93 :   0.2833 0.1167 0.0167  plane waves:     253
 k-point 94 :   0.3167 0.1167 0.0167  plane waves:     251
 k-point 95 :   0.3500 0.1167 0.0167  plane waves:     250
 k-point 96 :   0.3833 0.1167 0.0167  plane waves:     249
 k-point 97 :   0.4167 0.1167 0.0167  plane waves:     250
 k-point 98 :   0.4500 0.1167 0.0167  plane waves:     251
 k-point 99 :   0.4833 0.1167 0.0167  plane waves:     251
 k-point ** :  -0.4833 0.1167 0.0167  plane waves:     249
 k-point ** :  -0.4500 0.1167 0.0167  plane waves:     251
 k-point ** :  -0.4167 0.1167 0.0167  plane waves:     251
 k-point ** :  -0.3833 0.1167 0.0167  plane waves:     252
 k-point ** :  -0.3500 0.1167 0.0167  plane waves:     253
 k-point ** :  -0.3167 0.1167 0.0167  plane waves:     252
 k-point ** :  -0.2833 0.1167 0.0167  plane waves:     250
 k-point ** :  -0.2500 0.1167 0.0167  plane waves:     254
 k-point ** :  -0.2167 0.1167 0.0167  plane waves:     254
 k-point ** :  -0.1833 0.1167 0.0167  plane waves:     256
 k-point ** :  -0.1500 0.1167 0.0167  plane waves:     254
 k-point ** :  -0.1167 0.1167 0.0167  plane waves:     254
 k-point ** :  -0.0833 0.1167 0.0167  plane waves:     261
 k-point ** :  -0.0500 0.1167 0.0167  plane waves:     263
 k-point ** :  -0.0167 0.1167 0.0167  plane waves:     263
 k-point ** :   0.1500 0.1500 0.0167  plane waves:     260
 k-point ** :   0.1833 0.1500 0.0167  plane waves:     256
 k-point ** :   0.2167 0.1500 0.0167  plane waves:     253
 k-point ** :   0.2500 0.1500 0.0167  plane waves:     252
 k-point ** :   0.2833 0.1500 0.0167  plane waves:     251
 k-point ** :   0.3167 0.1500 0.0167  plane waves:     250
 k-point ** :   0.3500 0.1500 0.0167  plane waves:     249
 k-point ** :   0.3833 0.1500 0.0167  plane waves:     251
 k-point ** :   0.4167 0.1500 0.0167  plane waves:     248
 k-point ** :   0.4500 0.1500 0.0167  plane waves:     248
 k-point ** :   0.4833 0.1500 0.0167  plane waves:     250
 k-point ** :  -0.4833 0.1500 0.0167  plane waves:     248
 k-point ** :  -0.4500 0.1500 0.0167  plane waves:     248
 k-point ** :  -0.4167 0.1500 0.0167  plane waves:     250
 k-point ** :  -0.3833 0.1500 0.0167  plane waves:     250
 k-point ** :  -0.3500 0.1500 0.0167  plane waves:     253
 k-point ** :  -0.3167 0.1500 0.0167  plane waves:     252
 k-point ** :  -0.2833 0.1500 0.0167  plane waves:     253
 k-point ** :  -0.2500 0.1500 0.0167  plane waves:     254
 k-point ** :  -0.2167 0.1500 0.0167  plane waves:     255
 k-point ** :  -0.1833 0.1500 0.0167  plane waves:     257
 k-point ** :  -0.1500 0.1500 0.0167  plane waves:     254
 k-point ** :  -0.1167 0.1500 0.0167  plane waves:     254
 k-point ** :  -0.0833 0.1500 0.0167  plane waves:     255
 k-point ** :  -0.0500 0.1500 0.0167  plane waves:     262
 k-point ** :  -0.0167 0.1500 0.0167  plane waves:     264
 k-point ** :   0.1833 0.1833 0.0167  plane waves:     246
 k-point ** :   0.2167 0.1833 0.0167  plane waves:     248
 k-point ** :   0.2500 0.1833 0.0167  plane waves:     247
 k-point ** :   0.2833 0.1833 0.0167  plane waves:     245
 k-point ** :   0.3167 0.1833 0.0167  plane waves:     252
 k-point ** :   0.3500 0.1833 0.0167  plane waves:     250
 k-point ** :   0.3833 0.1833 0.0167  plane waves:     249
 k-point ** :   0.4167 0.1833 0.0167  plane waves:     249
 k-point ** :   0.4500 0.1833 0.0167  plane waves:     248
 k-point ** :   0.4833 0.1833 0.0167  plane waves:     249
 k-point ** :  -0.4833 0.1833 0.0167  plane waves:     249
 k-point ** :  -0.4500 0.1833 0.0167  plane waves:     249
 k-point ** :  -0.4167 0.1833 0.0167  plane waves:     249
 k-point ** :  -0.3833 0.1833 0.0167  plane waves:     249
 k-point ** :  -0.3500 0.1833 0.0167  plane waves:     251
 k-point ** :  -0.3167 0.1833 0.0167  plane waves:     252
 k-point ** :  -0.2833 0.1833 0.0167  plane waves:     253
 k-point ** :  -0.2500 0.1833 0.0167  plane waves:     254
 k-point ** :  -0.2167 0.1833 0.0167  plane waves:     256
[...]
 k-point ** :  -0.4500 0.4833 0.4167  plane waves:     252
 k-point ** :  -0.4167 0.4833 0.4167  plane waves:     249
 k-point ** :  -0.4833-0.4833 0.4167  plane waves:     250
 k-point ** :  -0.4500-0.4833 0.4167  plane waves:     250
 k-point ** :  -0.4500-0.4500 0.4167  plane waves:     248
 k-point ** :   0.4500 0.4500 0.4500  plane waves:     254
 k-point ** :   0.4833 0.4500 0.4500  plane waves:     252
 k-point ** :  -0.4833 0.4500 0.4500  plane waves:     252
 k-point ** :  -0.4500 0.4500 0.4500  plane waves:     250
 k-point ** :   0.4833 0.4833 0.4500  plane waves:     248
 k-point ** :  -0.4833 0.4833 0.4500  plane waves:     253
 k-point ** :  -0.4500 0.4833 0.4500  plane waves:     252
 k-point ** :  -0.4833-0.4833 0.4500  plane waves:     252
 k-point ** :   0.4833 0.4833 0.4833  plane waves:     242
 k-point ** :  -0.4833 0.4833 0.4833  plane waves:     250

 maximum and minimum number of plane-waves per node :       265      240

 maximum number of plane-waves:       265
 maximum index in each direction:
   IXMAX=    4   IYMAX=    4   IZMAX=    4
   IXMIN=   -4   IYMIN=   -4   IZMIN=   -4

 serial   3D FFT for wavefunctions
 parallel 3D FFT for charge:
    minimum data exchange during FFTs selected (reduces bandwidth)

 Broyden mixing: mesh for mixing (old mesh)
   NGX =  9   NGY =  9   NGZ =  9
  (NGX  = 28   NGY  = 28   NGZ  = 28)
  gives a total of    729 points

 initial charge density was supplied:
 charge density of overlapping atoms calculated
 number of electron       8.0000000 magnetization
 keeping initial charge density in first step

 Maximum index for augmentation-charges         3043 (set IRDMAX)

 First call to EWALD:  gamma=   0.488
 Maximum number of real-space cells 3x 3x 3
 Maximum number of reciprocal cells 3x 3x 3

--------------------------------------- Iteration      1(   1)  ---------------------------------------

 eigenvalue-minimisations  : 40776
 total energy-change (2. order) : 0.1539462E+01  (-0.1799057E+03)
 number of electron       8.0000000 magnetization
 augmentation part        8.0000000 magnetization

 Free energy of the ion-electron system (eV)
  alpha Z        PSCENC =        15.39765907
  Ewald energy   TEWEN  =      -215.09531029
  -Hartree energ DENC   =       -13.68821316
  -exchange      EXHF   =         0.00000000
  -V(xc)+E(xc)   XCENC  =       -15.55593105
  PAW double counting   =        83.23663922      -53.95136038
  entropy T*S    EENTRO =         0.00001204
  eigenvalues    EBANDS =        -9.34071003
  atomic energy  EATOM  =       210.53667696
  Solvation  Ediel_sol  =         0.00000000
  free energy    TOTEN  =         1.53946239 eV

  energy without entropy =        1.53945036  energy(sigma->0) =        1.53945838

[...]

 eigenvalue-minimisations  : 62912
 total energy-change (2. order) :-0.1053360E+02  (-0.1009798E+02)
 number of electron       8.0000000 magnetization
 augmentation part        8.0000000 magnetization

[...]

 Broyden mixing:
  rms(total) = 0.21383E+00    rms(broyden)= 0.21364E+00
  rms(prec ) = 0.59677E+00
  weight for this iteration     100.00

[...]

 eigenvalues of (default mixing * dielectric matrix)
  average eigenvalue GAMMA=   2.5339
  2.5339

[...]

 average (electrostatic) potential at core
  the test charge radii are     1.1631
  (the norm of the test charge is              1.0000)
       1 -34.2223       2 -34.2223

 E-fermi :   3.2986     XC(G=0):  -8.9376     alpha+bet : -8.6800

 k-point     1 :       0.0167    0.0167    0.0167
  band No.  band energies     occupation
      1      -9.0486      2.00000
      2       2.6771      2.00010
      3       3.2811      1.14731
      4       3.2811      1.14731
      5       3.3854      0.33667
      6       5.8064     -0.00000
      7       5.8064     -0.00000
      8       5.8083     -0.00000

[...]

 soft charge-density along one line, spin component           1
         0         1         2         3         4         5         6         7         8         9
 total charge-density along one line

------------------------ aborting loop because EDIFF is reached ----------------------------------------

  FORCE on cell =-STRESS in cart. coord.  units (eV):
  Direction    XX          YY          ZZ          XY          YZ          ZX
  Alpha Z    15.39766    15.39766    15.39766
  Ewald     -71.69847   -71.69847   -71.69847    -0.00000    -0.00000     0.00000
  Hartree     5.48492     5.48492     5.48492     0.00000     0.00000     0.00000
  E(xc)     -27.39715   -27.39715   -27.39715     0.00001     0.00001     0.00001
  Local     -23.83493   -23.83493   -23.83493     0.00024     0.00024     0.00024
  n-local    40.34321    41.79629    38.70153     0.54612    -0.54778     0.00084
  augment     1.84598     1.84598     1.84598    -0.00017    -0.00017    -0.00017
  Kinetic    61.34104    61.52105    56.92797     1.25410    -1.25778     0.00468
  Fock        0.00000     0.00000     0.00000     0.00000     0.00000     0.00000
  Total       0.00837     0.00837     0.00837     0.00000     0.00000     0.00000
  in kB       0.27939     0.27939     0.27939     0.00000     0.00000     0.00000

 VOLUME and BASIS-vectors are now :
  energy-cutoff  :      173.84
  volume of cell :       48.03
      direct lattice vectors                 reciprocal lattice vectors
     0.000000000  2.885000000  2.885000000    -0.173310225  0.173310225  0.173310225
     2.885000000  0.000000000  2.885000000     0.173310225 -0.173310225  0.173310225
     2.885000000  2.885000000  0.000000000     0.173310225  0.173310225 -0.173310225

[...]

 FORCES acting on ions
    electron-ion (+dipol)            ewald-force                    non-local-force                 convergence-correction
   -.493E-06 -.493E-06 -.493E-06   0.165E-14 -.163E-15 -.608E-14   0.607E-17 0.694E-17 0.931E-17   0.364E-08 0.364E-08 0.364E-08
   0.493E-06 0.493E-06 0.493E-06   -.180E-14 0.461E-15 0.606E-14   -.781E-17 -.694E-17 -.857E-17   -.364E-08 -.364E-08 -.364E-08
   0.716E-14 0.449E-14 -.832E-14   -.145E-15 0.298E-15 -.136E-16   -.173E-17 0.000E+00 0.739E-18   0.211E-14 -.607E-15 -.180E-14

 POSITION                                       TOTAL-FORCE (eV/Angst)
      0.00000      0.00000      0.00000         0.000000      0.000000      0.000000
      1.44250      1.44250      1.44250        -0.000000     -0.000000     -0.000000
    total drift:                                0.000000      0.000000     -0.000000

  FREE ENERGIE OF THE ION-ELECTRON SYSTEM (eV)
  free  energy   TOTEN  =        -9.03170342 eV

  energy  without entropy=       -9.03211812  energy(sigma->0) =       -9.03184165

[...]

 eigenvalue-minimisations  : 39712
 total energy-change (2. order) : 0.1581758E-05  (-0.2143686E-06)
 number of electron       8.0000037 magnetization
 augmentation part       -1.2975748 magnetization

[...]

 eigenvalues of (default mixing * dielectric matrix)
  average eigenvalue GAMMA=   2.0248
  1.8098  2.2398

[...]

 d Force = 0.0000000E+00[ 0.000E+00, 0.000E+00]  d Energy = 0.1237632E-05-0.124E-05
 d Force = 0.0000000E+00[ 0.000E+00, 0.000E+00]  d Ewald  =-0.4344157E-01 0.434E-01

 Steepest descent step on ions:
 trial-energy change:   -0.000001  1 .order   -0.000002   -0.000005    0.000002
  (g-gl).g = 0.508E-05      g.g   = 0.508E-05  gl.gl    = 0.000E+00
 g(Force)  = 0.343E-46   g(Stress)= 0.508E-05 ortho     = 0.000E+00
 gamma     =   0.00000
 trial     =   1.00000
 opt step  =   0.76894  (harmonic =   0.76894) maximal distance =0.00000000
 next E    =    -9.031705   (d E  =  -0.00000)

[...]

 Broyden mixing:
  rms(total) = 0.14983E-03    rms(broyden)= 0.14964E-03
  rms(prec ) = 0.51727E-03
  weight for this iteration     100.00

[...]

--------------------------------------- Iteration      3(   2)  ---------------------------------------

 eigenvalue-minimisations  : 19840
 total energy-change (2. order) :-0.1127762E-07  (-0.7270515E-08)
 number of electron       8.0000037 magnetization
 augmentation part       -1.2975197 magnetization

 Free energy of the ion-electron system (eV)
  alpha Z        PSCENC =        15.39048612
  Ewald energy   TEWEN  =      -215.06190459
  -Hartree energ DENC   =       -16.46275562
  -exchange      EXHF   =         0.00000000
  -V(xc)+E(xc)   XCENC  =       -14.97870081
  PAW double counting   =       102.11692670      -73.18029136
  entropy T*S    EENTRO =         0.00041415
  eigenvalues    EBANDS =       -17.39255657
  atomic energy  EATOM  =       210.53667696
  Solvation  Ediel_sol  =         0.00000000
  free energy    TOTEN  =        -9.03170502 eV

  energy without entropy =       -9.03211917  energy(sigma->0) =       -9.03184307

 average (electrostatic) potential at core
  the test charge radii are     1.1631
  (the norm of the test charge is              1.0000)
       1 -34.2254       2 -34.2254

 E-fermi :   3.2945     XC(G=0):  -8.9357     alpha+bet : -8.6759

[...]

 k-point  2480 :      -0.4833    0.4833    0.4833
  band No.  band energies     occupation
      1      -7.1019      2.00000
      2      -4.0587      2.00000
      3       1.7861      2.00000
      4       1.9488      2.00000
      5       3.4602      0.00600
      6       6.9491     -0.00000
      7       7.0137     -0.00000
      8      10.3929      0.00000

 soft charge-density along one line, spin component           1
         0         1         2         3         4         5         6         7         8         9
 total charge-density along one line

------------------------ aborting loop because EDIFF is reached ----------------------------------------

  FORCE on cell =-STRESS in cart. coord.  units (eV):
  Direction    XX          YY          ZZ          XY          YZ          ZX
  Alpha Z    15.39049    15.39049    15.39049
  Ewald     -71.68733   -71.68733   -71.68733     0.00000     0.00000     0.00000
  Hartree     5.48689     5.48689     5.48689     0.00000     0.00000     0.00000
  E(xc)     -27.39476   -27.39476   -27.39476     0.00001     0.00001     0.00001
  Local     -23.83660   -23.83660   -23.83660     0.00024     0.00024     0.00024
  n-local    40.33540    41.78853    38.69372     0.54593    -0.54758     0.00084
  augment     1.84585     1.84585     1.84585    -0.00017    -0.00017    -0.00017
  Kinetic    61.33147    61.51570    56.91628     1.25436    -1.25804     0.00468
  Fock        0.00000     0.00000     0.00000     0.00000     0.00000     0.00000
  Total      -0.00177    -0.00177    -0.00177     0.00000     0.00000     0.00000
  in kB      -0.05895    -0.05895    -0.05895     0.00000     0.00000     0.00000

 VOLUME and BASIS-vectors are now :
  energy-cutoff  :      173.84
  volume of cell :       48.05
      direct lattice vectors                 reciprocal lattice vectors
     0.000000000  2.885448129  2.885448129    -0.173283309  0.173283309  0.173283309
     2.885448129  0.000000000  2.885448129     0.173283309 -0.173283309  0.173283309
     2.885448129  2.885448129  0.000000000     0.173283309  0.173283309 -0.173283309

  length of vectors
     4.080639877  4.080639877  4.080639877     0.300135495  0.300135495  0.300135495

 FORCES acting on ions
    electron-ion (+dipol)            ewald-force                    non-local-force                 convergence-correction
   -.508E-06 -.508E-06 -.508E-06   0.366E-15 -.691E-15 -.266E-15   0.867E-18 0.173E-17 0.183E-18   0.211E-07 0.211E-07 0.211E-07
   0.508E-06 0.508E-06 0.508E-06   -.347E-15 0.589E-15 0.119E-15   0.000E+00 -.173E-17 -.108E-17   -.211E-07 -.211E-07 -.211E-07
   0.686E-14 0.516E-14 0.347E-14   0.184E-16 -.102E-15 -.147E-15   0.867E-18 0.000E+00 -.898E-18   0.368E-15 -.108E-14 0.943E-15

 POSITION                                       TOTAL-FORCE (eV/Angst)
      0.00000      0.00000      0.00000         0.000000      0.000000      0.000000
      1.44272      1.44272      1.44272        -0.000000     -0.000000     -0.000000
    total drift:                                0.000000      0.000000      0.000000

  FREE ENERGIE OF THE ION-ELECTRON SYSTEM (eV)
  free  energy   TOTEN  =        -9.03170502 eV

  energy  without entropy=       -9.03211917  energy(sigma->0) =       -9.03184307

 d Force = 0.0000000E+00[ 0.000E+00, 0.000E+00]  d Energy = 0.3670103E-06-0.367E-06
 d Force = 0.0000000E+00[ 0.000E+00, 0.000E+00]  d Ewald  = 0.1003587E-01-0.100E-01

 reached required accuracy - stopping structural energy minimisation