 vasp.5.4.4.18Apr17-6-g9f103f2a35 (build May 20 2018 16:52:39) complex

 executed on             LinuxIFC date 2022.11.17  22:01:42

 INCAR:
 POTCAR:    PAW Nb_pv 09Jan2002

 POTCAR:    PAW Nb_pv 09Jan2002
   VRHFIN =Nb: s1d4

   TITEL  = PAW Nb_pv 09Jan2002
   POMASS =   92.910; ZVAL   =   11.000    mass and valenz
   ENMAX  =  207.263; ENMIN  =  155.447 eV

  PAW Nb_pv 09Jan2002                   :

 POSCAR: sic16 Nb
  positions in direct lattice
 exchange correlation table for  LEXCH =        2
   RHO(1)=    0.500       N(1)  =     2000
   RHO(2)=  100.500       N(2)  =     4000

 ion  position               nearest neighbor table
   1  0.000  0.000  0.000-   2 2.86   4 2.86   6 2.86   8 2.86  10 2.86  12 2.86  14 2.86  16 2.86
                             7 3.30   5 3.30   3 3.30   7 3.30   5 3.30   3 3.30
   2  0.250  0.250  0.250-   1 2.86   3 2.86   5 2.86   7 2.86   9 2.86  11 2.86  13 2.86  15 2.86
                             4 3.30   8 3.30   6 3.30   8 3.30   6 3.30   4 3.30
   3  0.500  0.000  0.000-   2 2.86   4 2.86   6 2.86   8 2.86  10 2.86  12 2.86  14 2.86  16 2.86
                            13 3.30   1 3.30   9 3.30  13 3.30   9 3.30   1 3.30
   4  0.750  0.250  0.250-   1 2.86   3 2.86   5 2.86   7 2.86   9 2.86  11 2.86  13 2.86  15 2.86
                            10 3.30  14 3.30   2 3.30  14 3.30  10 3.30   2 3.30
   5  0.000  0.500  0.000-   2 2.86   4 2.86   6 2.86   8 2.86  10 2.86  12 2.86  14 2.86  16 2.86
                             9 3.30   1 3.30  11 3.30  11 3.30   1 3.30   9 3.30
   6  0.250  0.750  0.250-   1 2.86   3 2.86   5 2.86   7 2.86   9 2.86  11 2.86  13 2.86  15 2.86
                            12 3.30  10 3.30   2 3.30  12 3.30   2 3.30  10 3.30
   7  0.000  0.000  0.500-   2 2.86   4 2.86   6 2.86   8 2.86  10 2.86  12 2.86  14 2.86  16 2.86
                            13 3.30  11 3.30   1 3.30   1 3.30  11 3.30  13 3.30
   8  0.250  0.250  0.750-   1 2.86   3 2.86   5 2.86   7 2.86   9 2.86  11 2.86  13 2.86  15 2.86
                             2 3.30  14 3.30  12 3.30   2 3.30  12 3.30  14 3.30
   9  0.500  0.500  0.000-   2 2.86   4 2.86   6 2.86   8 2.86  10 2.86  12 2.86  14 2.86  16 2.86
                             3 3.30  15 3.30   5 3.30  15 3.30   3 3.30   5 3.30
  10  0.750  0.750  0.250-   1 2.86   3 2.86   5 2.86   7 2.86   9 2.86  11 2.86  13 2.86  15 2.86
                             6 3.30   4 3.30  16 3.30  16 3.30   4 3.30   6 3.30
  11  0.000  0.500  0.500-   2 2.86   4 2.86   6 2.86   8 2.86  10 2.86  12 2.86  14 2.86  16 2.86
                             7 3.30  15 3.30   5 3.30   5 3.30   7 3.30  15 3.30
  12  0.250  0.750  0.750-   1 2.86   3 2.86   5 2.86   7 2.86   9 2.86  11 2.86  13 2.86  15 2.86
                             6 3.30   8 3.30  16 3.30   6 3.30   8 3.30  16 3.30
  13  0.500  0.000  0.500-   2 2.86   4 2.86   6 2.86   8 2.86  10 2.86  12 2.86  14 2.86  16 2.86
                             7 3.30  15 3.30   3 3.30   3 3.30  15 3.30   7 3.30
  14  0.750  0.250  0.750-   1 2.86   3 2.86   5 2.86   7 2.86   9 2.86  11 2.86  13 2.86  15 2.86
                             4 3.30   8 3.30  16 3.30   4 3.30  16 3.30   8 3.30
  15  0.500  0.500  0.500-   2 2.86   4 2.86   6 2.86   8 2.86  10 2.86  12 2.86  14 2.86  16 2.86
                            13 3.30  11 3.30   9 3.30   9 3.30  13 3.30  11 3.30
  16  0.750  0.750  0.750-   1 2.86   3 2.86   5 2.86   7 2.86   9 2.86  11 2.86  13 2.86  15 2.86
                            10 3.30  14 3.30  12 3.30  10 3.30  14 3.30  12 3.30

  LATTYP: Found a simple cubic cell.
 ALAT       =     6.6016000000

  Lattice vectors:

 A1 = (   6.6016000000,   0.0000000000,   0.0000000000)
 A2 = (   0.0000000000,   6.6016000000,   0.0000000000)
 A3 = (   0.0000000000,   0.0000000000,   6.6016000000)

Analysis of symmetry for initial positions (statically):
 Subroutine PRICEL returns following result:

  LATTYP: Found a body centered cubic cell.
 ALAT       =     3.3008000000

[...]

  16 primitive cells build up your supercell.

 Routine SETGRP: Setting up the symmetry group for a
 simple cubic supercell.

 Subroutine GETGRP returns: Found 48 space group operations
 (whereof 48 operations were pure point group operations)
 out of a pool of 48 trial point group operations.

The static configuration has the point symmetry O_h .

Analysis of symmetry for dynamics (positions and initial velocities):
 Subroutine PRICEL returns following result:

  LATTYP: Found a body centered cubic cell.
 ALAT       =     3.3008000000

  Lattice vectors:

 A1 = (   1.6504000000,   1.6504000000,   1.6504000000)
 A2 = (   1.6504000000,  -1.6504000000,  -1.6504000000)
 A3 = (  -1.6504000000,   1.6504000000,  -1.6504000000)

  16 primitive cells build up your supercell.

 Routine SETGRP: Setting up the symmetry group for a
 simple cubic supercell.

 Subroutine GETGRP returns: Found 48 space group operations
 (whereof 48 operations were pure point group operations)
 out of a pool of 48 trial point group operations.

The dynamic configuration has the point symmetry O_h .

 Subroutine INISYM returns: Found 48 space group operations
 (whereof 48 operations are pure point group operations),
 and found    16 'primitive' translations

 KPOINTS: 16*16*16

Automatic generation of k-mesh.
Space group operators:
 irot       det(A)        alpha          n_x          n_y          n_z        tau_x        tau_y        tau_z
    1     1.000000     0.000000     1.000000     0.000000     0.000000     0.000000     0.000000     0.000000
    2    -1.000000     0.000000     1.000000     0.000000     0.000000     0.000000     0.000000     0.000000
    3     1.000000   120.000000    -0.577350    -0.577350    -0.577350     0.000000     0.000000     0.000000
    4    -1.000000   120.000000    -0.577350    -0.577350    -0.577350     0.000000     0.000000     0.000000
    5     1.000000   120.000000     0.577350     0.577350     0.577350     0.000000     0.000000     0.000000
    6    -1.000000   120.000000     0.577350     0.577350     0.577350     0.000000     0.000000     0.000000
    7     1.000000    90.000000     0.000000     0.000000    -1.000000     0.000000     0.000000     0.000000
    8    -1.000000    90.000000     0.000000     0.000000    -1.000000     0.000000     0.000000     0.000000
    9     1.000000   180.000000     0.000000     0.707107     0.707107     0.000000     0.000000     0.000000
   10    -1.000000   180.000000     0.000000     0.707107     0.707107     0.000000     0.000000     0.000000
   11     1.000000    90.000000     0.000000     1.000000     0.000000     0.000000     0.000000     0.000000
   12    -1.000000    90.000000     0.000000     1.000000     0.000000     0.000000     0.000000     0.000000
   13     1.000000   180.000000     0.000000     0.000000     1.000000     0.000000     0.000000     0.000000
   14    -1.000000   180.000000     0.000000     0.000000     1.000000     0.000000     0.000000     0.000000
   15     1.000000   120.000000    -0.577350     0.577350     0.577350     0.000000     0.000000     0.000000
   16    -1.000000   120.000000    -0.577350     0.577350     0.577350     0.000000     0.000000     0.000000
   17     1.000000   120.000000    -0.577350     0.577350    -0.577350     0.000000     0.000000     0.000000
   18    -1.000000   120.000000    -0.577350     0.577350    -0.577350     0.000000     0.000000     0.000000
   19     1.000000    90.000000     0.000000     0.000000     1.000000     0.000000     0.000000     0.000000
   20    -1.000000    90.000000     0.000000     0.000000     1.000000     0.000000     0.000000     0.000000
   21     1.000000    90.000000    -1.000000     0.000000     0.000000     0.000000     0.000000     0.000000
   22    -1.000000    90.000000    -1.000000     0.000000     0.000000     0.000000     0.000000     0.000000
   23     1.000000   180.000000     0.707107     0.000000     0.707107     0.000000     0.000000     0.000000
   24    -1.000000   180.000000     0.707107     0.000000     0.707107     0.000000     0.000000     0.000000
   25     1.000000   120.000000     0.577350    -0.577350     0.577350     0.000000     0.000000     0.000000
   26    -1.000000   120.000000     0.577350    -0.577350     0.577350     0.000000     0.000000     0.000000
   27     1.000000   120.000000    -0.577350    -0.577350     0.577350     0.000000     0.000000     0.000000
   28    -1.000000   120.000000    -0.577350    -0.577350     0.577350     0.000000     0.000000     0.000000
   29     1.000000   180.000000     1.000000     0.000000     0.000000     0.000000     0.000000     0.000000
   30    -1.000000   180.000000     1.000000     0.000000     0.000000     0.000000     0.000000     0.000000
   31     1.000000    90.000000     0.000000    -1.000000     0.000000     0.000000     0.000000     0.000000
   32    -1.000000    90.000000     0.000000    -1.000000     0.000000     0.000000     0.000000     0.000000
   33     1.000000   180.000000     0.707107     0.707107     0.000000     0.000000     0.000000     0.000000
   34    -1.000000   180.000000     0.707107     0.707107     0.000000     0.000000     0.000000     0.000000
   35     1.000000    90.000000     1.000000     0.000000     0.000000     0.000000     0.000000     0.000000
   36    -1.000000    90.000000     1.000000     0.000000     0.000000     0.000000     0.000000     0.000000
   37     1.000000   120.000000     0.577350    -0.577350    -0.577350     0.000000     0.000000     0.000000
   38    -1.000000   120.000000     0.577350    -0.577350    -0.577350     0.000000     0.000000     0.000000
   39     1.000000   180.000000     0.000000     1.000000     0.000000     0.000000     0.000000     0.000000
   40    -1.000000   180.000000     0.000000     1.000000     0.000000     0.000000     0.000000     0.000000
   41     1.000000   120.000000     0.577350     0.577350    -0.577350     0.000000     0.000000     0.000000
   42    -1.000000   120.000000     0.577350     0.577350    -0.577350     0.000000     0.000000     0.000000
   43     1.000000   180.000000     0.000000    -0.707107     0.707107     0.000000     0.000000     0.000000
   44    -1.000000   180.000000     0.000000    -0.707107     0.707107     0.000000     0.000000     0.000000
   45     1.000000   180.000000     0.707107    -0.707107     0.000000     0.000000     0.000000     0.000000
   46    -1.000000   180.000000     0.707107    -0.707107     0.000000     0.000000     0.000000     0.000000
   47     1.000000   180.000000     0.707107     0.000000    -0.707107     0.000000     0.000000     0.000000
   48    -1.000000   180.000000     0.707107     0.000000    -0.707107     0.000000     0.000000     0.000000

 Subroutine IBZKPT returns following result:

 Found    120 irreducible k-points:

 Following reciprocal coordinates:
            Coordinates               Weight
  0.031250  0.031250  0.031250      8.000000
  0.093750  0.031250  0.031250     24.000000
  0.156250  0.031250  0.031250     24.000000
  0.218750  0.031250  0.031250     24.000000
  0.281250  0.031250  0.031250     24.000000
  0.343750  0.031250  0.031250     24.000000
  0.406250  0.031250  0.031250     24.000000
[...]
 k-point 89 :   0.4063 0.2188 0.2188  plane waves:    3389
 k-point 90 :   0.4688 0.2188 0.2188  plane waves:    3387
 k-point 91 :   0.2812 0.2812 0.2188  plane waves:    3400
 k-point 92 :   0.3438 0.2812 0.2188  plane waves:    3392
 k-point 93 :   0.4063 0.2812 0.2188  plane waves:    3394
 k-point 94 :   0.4688 0.2812 0.2188  plane waves:    3393
 k-point 95 :   0.3438 0.3438 0.2188  plane waves:    3392
 k-point 96 :   0.4063 0.3438 0.2188  plane waves:    3392
 k-point 97 :   0.4688 0.3438 0.2188  plane waves:    3385
 k-point 98 :   0.4063 0.4063 0.2188  plane waves:    3380
 k-point 99 :   0.4688 0.4063 0.2188  plane waves:    3385
 k-point ** :   0.4688 0.4688 0.2188  plane waves:    3386
 k-point ** :   0.2812 0.2812 0.2812  plane waves:    3392
 k-point ** :   0.3438 0.2812 0.2812  plane waves:    3386
 k-point ** :   0.4063 0.2812 0.2812  plane waves:    3381
 k-point ** :   0.4688 0.2812 0.2812  plane waves:    3378
 k-point ** :   0.3438 0.3438 0.2812  plane waves:    3382
 k-point ** :   0.4063 0.3438 0.2812  plane waves:    3377
 k-point ** :   0.4688 0.3438 0.2812  plane waves:    3388
 k-point ** :   0.4063 0.4063 0.2812  plane waves:    3384
 k-point ** :   0.4688 0.4063 0.2812  plane waves:    3392
 k-point ** :   0.4688 0.4688 0.2812  plane waves:    3390
 k-point ** :   0.3438 0.3438 0.3438  plane waves:    3380
 k-point ** :   0.4063 0.3438 0.3438  plane waves:    3383
 k-point ** :   0.4688 0.3438 0.3438  plane waves:    3386
 k-point ** :   0.4063 0.4063 0.3438  plane waves:    3381
 k-point ** :   0.4688 0.4063 0.3438  plane waves:    3384
 k-point ** :   0.4688 0.4688 0.3438  plane waves:    3388
 k-point ** :   0.4063 0.4063 0.4063  plane waves:    3379
 k-point ** :   0.4688 0.4063 0.4063  plane waves:    3392
 k-point ** :   0.4688 0.4688 0.4063  plane waves:    3398
 k-point ** :   0.4688 0.4688 0.4688  plane waves:    3406

 maximum and minimum number of plane-waves per node :      3415     3377

 maximum number of plane-waves:      3415
 maximum index in each direction:
   IXMAX=    9   IYMAX=    9   IZMAX=    9
   IXMIN=   -9   IYMIN=   -9   IZMIN=   -9

 serial   3D FFT for wavefunctions
 parallel 3D FFT for charge:
    minimum data exchange during FFTs selected (reduces bandwidth)

 initial charge density was supplied:
 number of electron     176.0000832 magnetization
 keeping initial charge density in first step

 Maximum index for augmentation-charges          341 (set IRDMAX)

 First call to EWALD:  gamma=   0.268
 Maximum number of real-space cells 3x 3x 3
 Maximum number of reciprocal cells 3x 3x 3

--------------------------------------- Iteration      1(   1)  ---------------------------------------

 BZINTS: Fermi energy: 15.649934;176.000000 electrons
         Band energy:-673.477083;  BLOECHL correction: -0.057880

 eigenvalue-minimisations  : 31160
 total energy-change (2. order) : 0.1331017E+04  (-0.7056761E+04)
 number of electron     176.0000832 magnetization
 augmentation part      176.0000832 magnetization

 Free energy of the ion-electron system (eV)
  alpha Z        PSCENC =      1996.84190797
  Ewald energy   TEWEN  =    -15368.17067784
  -Hartree energ DENC   =     -1922.08918475
  -exchange      EXHF   =         0.00000000
  -V(xc)+E(xc)   XCENC  =       422.99589016
  PAW double counting   =     23987.23605472   -23854.13056809
  entropy T*S    EENTRO =         0.00000000
  eigenvalues    EBANDS =      -673.47708303
  atomic energy  EATOM  =     16741.81022793
  Solvation  Ediel_sol  =         0.00000000
  free energy    TOTEN  =      1331.01656708 eV

  energy without entropy =     1331.01656708  energy(sigma->0) =     1331.01656708

[...]

 eigenvalue-minimisations  : 29200
 total energy-change (2. order) :-0.1437065E+04  (-0.1409149E+04)
 number of electron     176.0000832 magnetization
 augmentation part      176.0000832 magnetization

[...]

--------------------------------------- Iteration      1(   9)  ---------------------------------------

 BZINTS: Fermi energy:  4.841222;176.000000 electrons
         Band energy:***********;  BLOECHL correction: -0.069777

 eigenvalue-minimisations  : 31800
 total energy-change (2. order) :-0.1283479E-07  (-0.1275867E-07)
 number of electron     176.0000832 magnetization
 augmentation part      176.0000832 magnetization

 Free energy of the ion-electron system (eV)
  alpha Z        PSCENC =      1996.84190797
  Ewald energy   TEWEN  =    -15368.17067784
  -Hartree energ DENC   =     -1922.08918475
  -exchange      EXHF   =         0.00000000
  -V(xc)+E(xc)   XCENC  =       422.99589016
  PAW double counting   =     23987.23605472   -23854.13056809
  entropy T*S    EENTRO =         0.00000000
  eigenvalues    EBANDS =     -2182.68337958
  atomic energy  EATOM  =     16741.81022793
  Solvation  Ediel_sol  =         0.00000000
  free energy    TOTEN  =      -178.18972947 eV

  energy without entropy =     -178.18972947  energy(sigma->0) =     -178.18972947

 average (electrostatic) potential at core
  the test charge radii are     1.2165
  (the norm of the test charge is              1.0000)
       1 -34.9050       2 -34.9050       3 -34.9050       4 -34.9050       5 -34.9050
       6 -34.9050       7 -34.9050       8 -34.9050       9 -34.9050      10 -34.9050
      11 -34.9050      12 -34.9050      13 -34.9050      14 -34.9050      15 -34.9050
      16 -34.9050

 E-fermi :   4.8412     XC(G=0): -12.6478     alpha+bet :-12.9149

 k-point     1 :       0.0312    0.0312    0.0312
  band No.  band energies     occupation
      1     -26.0718      2.00000
      2     -26.0718      2.00000
      3     -26.0718      2.00000
      4     -26.0698      2.00000
      5     -26.0698      2.00000
      6     -26.0698      2.00000
      7     -25.6376      2.00000
      8     -25.6376      2.00000
      9     -25.6328      2.00000
     10     -25.4719      2.00000
     11     -25.4719      2.00000
     12     -25.4719      2.00000
     13     -25.4600      2.00000
     14     -25.4270      2.00000
     15     -25.4270      2.00000
     16     -25.4270      2.00000
     17     -25.4268      2.00000
     18     -25.4268      2.00000
     19     -25.3595      2.00000
     20     -25.3595      2.00000
     21     -25.3258      2.00000
     22     -25.1796      2.00000
     23     -25.1796      2.00000
     24     -25.1796      2.00000
     25     -25.1714      2.00000
     26     -25.1714      2.00000
     27     -25.1714      2.00000
     28     -25.1330      2.00000
     29     -25.1330      2.00000
     30     -25.1330      2.00000
     31     -25.1291      2.00000
     32     -25.1291      2.00000
     33     -25.1291      2.00000
     34     -25.1268      2.00000
     35     -25.1268      2.00000
     36     -25.1268      2.00000
     37     -25.1251      2.00000
     38     -25.1251      2.00000
     39     -25.1251      2.00000
     40     -24.7073      2.00000
     41     -24.7073      2.00000
     42     -24.7073      2.00000
     43     -24.7049      2.00000
     44     -24.7049      2.00000
     45     -24.7049      2.00000
     46     -24.6968      2.00000
     47     -24.6913      2.00000
     48     -24.6913      2.00000
     49      -1.0728      2.00000
     50       1.0932      2.00000
     51       1.0932      2.00000
     52       1.0993      2.00000
     53       1.0993      2.00000
     54       1.0993      2.00000
     55       1.1046      2.00000
     56       1.1046      2.00000
     57       1.1046      2.00000
     58       2.2573      2.00000
     59       2.2573      2.00000
     60       2.2573      2.00000
[...]
    106       7.5526      0.00000
    107       7.5526      0.00000
    108       7.5526      0.00000
    109       8.0715      0.00000
    110       8.0715      0.00000
    111       8.0913      0.00000
    112       8.0913      0.00000
    113       8.0913      0.00000
    114       8.1181      0.00000
    115       8.1181      0.00000
    116       8.1181      0.00000
    117       8.7892      0.00000
    118       8.7985      0.00000
    119       8.8372      0.00000
    120       8.8926      0.00000

[...]

 k-point   120 :       0.4688    0.4688    0.4688
  band No.  band energies     occupation
      1     -25.7273      2.00000
      2     -25.7273      2.00000
      3     -25.7273      2.00000
      4     -25.7253      2.00000
      5     -25.7253      2.00000
      6     -25.7253      2.00000
      7     -25.6893      2.00000
      8     -25.6893      2.00000
      9     -25.6860      2.00000
     10     -25.6860      2.00000
     11     -25.6599      2.00000
     12     -25.6494      2.00000
     13     -25.6494      2.00000
     14     -25.6494      2.00000
     15     -25.6456      2.00000
     16     -25.6456      2.00000
     17     -25.6456      2.00000
     18     -25.6274      2.00000
     19     -25.6274      2.00000
     20     -25.6274      2.00000
     21     -25.5895      2.00000
     22     -25.5895      2.00000
     23     -25.5895      2.00000
     24     -25.5472      2.00000
     25     -24.9982      2.00000
     26     -24.9686      2.00000
     27     -24.9686      2.00000
     28     -24.9686      2.00000
     29     -24.9421      2.00000
     30     -24.9421      2.00000
     31     -24.9421      2.00000
     32     -24.9192      2.00000
     33     -24.8987      2.00000
     34     -24.8987      2.00000
     35     -24.8987      2.00000
     36     -24.8904      2.00000
     37     -24.8904      2.00000
     38     -24.8816      2.00000
     39     -24.8816      2.00000
     40     -24.8816      2.00000
     41     -24.8496      2.00000
     42     -24.8496      2.00000
     43     -24.8496      2.00000
     44     -24.8424      2.00000
     45     -24.8424      2.00000
     46     -24.8353      2.00000
     47     -24.8353      2.00000
     48     -24.8353      2.00000
     49       1.5907      2.00000
     50       1.7686      2.00000
     51       1.7686      2.00000
     52       1.7686      2.00000
     53       1.9462      2.00000
     54       1.9462      2.00000
     55       1.9462      2.00000
     56       2.1414      2.00000
     57       3.0577      2.00000
     58       3.0577      2.00000
     59       3.1109      2.00000
     60       3.1109      2.00000
[...]
    106       8.2105      0.00000
    107       8.2137      0.00000
    108       8.2137      0.00000
    109       8.2137      0.00000
    110       8.2420      0.00000
    111       8.2420      0.00000
    112       8.2420      0.00000
    113       8.4291      0.00000
    114       8.4291      0.00000
    115       8.4291      0.00000
    116       8.4761      0.00000
    117       8.4762      0.00000
    118       8.4763      0.00000
    119       8.6115      0.00000
    120       8.6125      0.00000

 soft charge-density along one line, spin component           1
         0         1         2         3         4         5         6         7         8         9
 total charge-density along one line

------------------------ aborting loop because EDIFF is reached ----------------------------------------

  FORCE on cell =-STRESS in cart. coord.  units (eV):
  Direction    XX          YY          ZZ          XY          YZ          ZX
  Alpha Z  1996.84191  1996.84191  1996.84191
  Ewald   -5122.73989 -5122.73989 -5122.73989     0.00000     0.00000     0.00000
  Hartree   640.75025   640.75025   640.75025    -0.00000    -0.00000    -0.00000
  E(xc)    -750.16972  -750.16972  -750.16972     0.00000    -0.00000     0.00000
  Local    1644.51148  1644.51148  1644.51148     0.00000    -0.00000    -0.00000
  n-local  -665.09550  -671.93929  -674.34106    -4.69903    -2.75817    -2.67169
  augment   418.78818   418.78818   418.78818     0.00000     0.00000     0.00000
  Kinetic  1844.53510  1828.70478  1817.68124   -11.69113    -3.89605    -5.64449
  Fock        0.00000     0.00000     0.00000     0.00000     0.00000     0.00000
  Total     -12.16936   -12.16936   -12.16936     0.00000     0.00000    -0.00000
  in kB     -67.76896   -67.76896   -67.76896     0.00000     0.00000    -0.00000

 VOLUME and BASIS-vectors are now :
  energy-cutoff  :      300.00
  volume of cell :      287.71
      direct lattice vectors                 reciprocal lattice vectors
     6.601600000  0.000000000  0.000000000     0.151478429  0.000000000  0.000000000
     0.000000000  6.601600000  0.000000000     0.000000000  0.151478429  0.000000000
     0.000000000  0.000000000  6.601600000     0.000000000  0.000000000  0.151478429

  length of vectors
     6.601600000  6.601600000  6.601600000     0.151478429  0.151478429  0.151478429

 FORCES acting on ions
    electron-ion (+dipol)            ewald-force                    non-local-force                 convergence-correction
   -.470E-13 0.177E-13 0.546E-14   0.128E-12 0.426E-13 0.711E-13   -.148E-20 0.169E-20 -.101E-20   0.463E-13 -.161E-13 -.744E-14
   0.755E-13 0.165E-12 0.100E-12   0.128E-12 0.840E-13 0.843E-13   0.212E-20 0.000E+00 0.529E-22   -.265E-13 -.823E-13 -.230E-13
   0.233E-12 0.253E-13 0.110E-13   0.426E-13 0.284E-13 0.426E-13   0.106E-20 -.191E-20 0.185E-20   -.110E-12 -.303E-13 -.469E-14
   0.436E-12 -.520E-12 -.587E-12   0.428E-13 0.422E-13 0.698E-13   -.191E-20 -.275E-20 0.238E-20   -.178E-12 -.772E-13 -.217E-13
   -.458E-13 0.174E-12 0.631E-14   0.711E-13 0.000E+00 0.142E-13   0.000E+00 0.148E-20 0.169E-20   0.461E-13 -.293E-13 -.741E-14
   0.756E-13 0.364E-12 0.105E-12   0.663E-13 0.426E-13 -.130E-14   0.212E-20 -.191E-20 0.148E-20   -.261E-13 -.141E-12 -.228E-13
   -.460E-13 0.178E-13 0.190E-12   -.142E-13 -.142E-13 0.142E-13   0.000E+00 -.127E-20 -.371E-20   0.455E-13 -.145E-13 -.555E-13
   0.744E-13 0.170E-12 0.431E-12   -.138E-13 -.235E-14 0.142E-13   0.000E+00 -.222E-20 0.175E-20   -.269E-13 -.843E-13 -.195E-12
   0.236E-12 0.178E-12 0.631E-14   -.142E-13 0.000E+00 0.142E-13   -.847E-21 -.424E-21 -.688E-21   -.119E-12 -.357E-13 -.708E-14
   0.437E-12 0.466E-12 -.128E-11   -.143E-13 0.426E-13 0.180E-13   -.847E-21 -.222E-20 -.222E-20   -.177E-12 -.134E-12 -.225E-13
   -.449E-13 0.175E-12 0.190E-12   -.142E-13 -.426E-13 0.142E-13   0.000E+00 -.169E-20 0.741E-21   0.471E-13 -.303E-13 -.549E-13
   0.750E-13 0.348E-12 0.415E-12   -.117E-13 -.284E-13 0.143E-13   0.424E-21 0.000E+00 0.604E-20   -.279E-13 -.140E-12 -.196E-12
   0.235E-12 0.196E-13 0.184E-12   -.995E-13 0.000E+00 -.568E-13   -.424E-21 0.847E-21 -.688E-21   -.113E-12 -.309E-13 -.548E-13
   0.436E-12 -.122E-11 0.532E-12   -.997E-13 0.147E-13 -.142E-13   -.169E-20 -.466E-20 0.143E-20   -.178E-12 -.798E-13 -.193E-12
   0.233E-12 0.176E-12 0.184E-12   -.128E-12 -.711E-13 -.995E-13   -.635E-21 -.148E-20 0.106E-21   -.118E-12 -.319E-13 -.541E-13
   0.437E-12 0.187E-11 0.194E-11   -.128E-12 -.287E-13 -.285E-13   0.339E-20 -.233E-20 0.424E-21   -.176E-12 -.133E-12 -.193E-12
   0.280E-11 0.243E-11 0.243E-11   -.582E-13 0.110E-12 0.171E-12   0.127E-20 -.188E-19 0.963E-20   -.109E-11 -.109E-11 -.111E-11

 POSITION                                       TOTAL-FORCE (eV/Angst)
      0.00000      0.00000      0.00000        -0.000000     -0.000000     -0.000000
      1.65040      1.65040      1.65040        -0.000000     -0.000000      0.000000
      3.30080      0.00000      0.00000         0.000000      0.000000      0.000000
      4.95120      1.65040      1.65040         0.000000      0.000000     -0.000000
      0.00000      3.30080      0.00000         0.000000      0.000000     -0.000000
      1.65040      4.95120      1.65040        -0.000000     -0.000000     -0.000000
      0.00000      0.00000      3.30080        -0.000000      0.000000      0.000000
      1.65040      1.65040      4.95120        -0.000000      0.000000      0.000000
      3.30080      3.30080      0.00000         0.000000     -0.000000     -0.000000
      4.95120      4.95120      1.65040         0.000000      0.000000     -0.000000
      0.00000      3.30080      3.30080        -0.000000      0.000000      0.000000
      1.65040      4.95120      4.95120         0.000000      0.000000     -0.000000
      3.30080      0.00000      3.30080         0.000000     -0.000000      0.000000
      4.95120      1.65040      4.95120        -0.000000     -0.000000     -0.000000
      3.30080      3.30080      3.30080         0.000000      0.000000      0.000000
      4.95120      4.95120      4.95120        -0.000000      0.000000      0.000000
    total drift:                                0.000000      0.000000      0.000000

  FREE ENERGIE OF THE ION-ELECTRON SYSTEM (eV)
  free  energy   TOTEN  =      -178.18972947 eV

  energy  without entropy=     -178.18972947  energy(sigma->0) =     -178.18972947

 writing wavefunctions
 BZINTS: Fermi energy:  4.841222;176.000000 electrons
         Band energy:***********;  BLOECHL correction: -0.069777