 vasp.5.4.4.18Apr17-6-g9f103f2a35 (build May 20 2018 16:52:39) complex

 executed on             LinuxIFC date 2022.11.14  12:17:19

 INCAR:
 POTCAR:   PAW_GGA Mo 08Jan2002
 POTCAR:   PAW_GGA S 21Jan2003
 POTCAR:   PAW_GGA Mo 08Jan2002
   VRHFIN =Mo: 4p5s4d

   TITEL  = PAW_GGA Mo 08Jan2002
   POMASS =   95.940; ZVAL   =    6.000    mass and valenz
   ENMAX  =  224.580; ENMIN  =  168.435 eV
   QCUT   =   -4.063; QGAM   =    8.126    optimization parameters

   Description
     l     E      TYP  RCUT    TYP  RCUT
     2   .000     23  2.500
     2   .000     23  2.500
     0   .000     23  2.600
     0  1.000     23  2.600
     1   .400     23  2.750
     1  2.000     23  2.750
     3   .000      7   .000

 POTCAR:   PAW_GGA S 21Jan2003
   VRHFIN =S : s2p4

   TITEL  = PAW_GGA S 21Jan2003
   POMASS =   32.066; ZVAL   =    6.000    mass and valenz
   ENMAX  =  280.000; ENMIN  =  194.015 eV
   QCUT   =   -4.360; QGAM   =    8.721    optimization parameters

   Description
     l     E      TYP  RCUT    TYP  RCUT
     0   .000     23  1.900
     0   .000     23  1.900
     1   .000     23  1.900
     1   .000     23  1.900
     2   .000      7  1.900

 PAW_GGA Mo 08Jan2002                   :
 PAW_GGA S 21Jan2003                    :

 POSCAR: MoS2
  positions in direct lattice
 exchange correlation table for  LEXCH =        7
   RHO(1)=    0.500       N(1)  =     2000
   RHO(2)=  100.500       N(2)  =     4000

 ion  position               nearest neighbor table
   1  0.333  0.667  0.125-   2 2.42   3 2.42   2 2.42   3 2.42   2 2.42   3 2.42
   2  0.667  0.333  0.178-   1 2.42   1 2.42   1 2.42
   3  0.667  0.333  0.072-   1 2.42   1 2.42   1 2.42

  LATTYP: Found a hexagonal cell.
 ALAT       =     3.1903153920
 C/A-ratio  =     9.3276044353

  Lattice vectors:

 A1 = (   3.1903160000,   0.0000000000,   0.0000000000)
 A2 = (  -1.5951580000,   2.7628940000,   0.0000000000)
 A3 = (   0.0000000000,   0.0000000000,  29.7580000000)

Analysis of symmetry for initial positions (statically):
 Subroutine PRICEL returns:
 Original cell was already a primitive cell.

 Routine SETGRP: Setting up the symmetry group for a
 hexagonal supercell.

 Subroutine GETGRP returns: Found 12 space group operations
 (whereof  6 operations were pure point group operations)
 out of a pool of 24 trial point group operations.

The static configuration has the point symmetry C_3v.
 The point group associated with its full space group is D_3h.

Analysis of symmetry for dynamics (positions and initial velocities):
 Subroutine PRICEL returns:
 Original cell was already a primitive cell.

 Routine SETGRP: Setting up the symmetry group for a
 hexagonal supercell.

 Subroutine GETGRP returns: Found 12 space group operations
 (whereof  6 operations were pure point group operations)
 out of a pool of 24 trial point group operations.

The dynamic configuration has the point symmetry C_3v.
 The point group associated with its full space group is D_3h.

 Subroutine INISYM returns: Found 12 space group operations
 (whereof  6 operations are pure point group operations),
 and found     1 'primitive' translations

 KPOINTS: Hexagonal lattice 40
  interpolating k-points between supplied coordinates
  k-points in reciprocal lattice
Space group operators:
 irot       det(A)        alpha          n_x          n_y          n_z        tau_x        tau_y        tau_z
    1     1.000000     0.000000     1.000000     0.000000     0.000000     0.000000     0.000000     0.000000
    2     1.000000   120.000000     0.000000     0.000000    -1.000000     0.000000     0.000000     0.000000
    3     1.000000   120.000000     0.000000     0.000000     1.000000     0.000000     0.000000     0.000000
    4    -1.000000   180.000000     1.000000     0.000000     0.000000     0.000000     0.000000     0.000000
    5    -1.000000   180.000000     0.500000    -0.866025     0.000000     0.000000     0.000000     0.000000
    6    -1.000000   180.000000    -0.500000    -0.866025     0.000000     0.000000     0.000000     0.000000
    7    -1.000000    60.000000     0.000000     0.000000    -1.000000     0.000000     0.000000     0.250000
    8    -1.000000   180.000000     0.000000     0.000000     1.000000     0.000000     0.000000     0.250000
    9    -1.000000    60.000000     0.000000     0.000000     1.000000     0.000000     0.000001     0.250000
   10     1.000000   180.000000     0.866025    -0.500000     0.000000     0.000000     0.000000     0.250000
   11     1.000000   180.000000     0.000000     1.000000     0.000000     0.000000     0.000000     0.250000
   12     1.000000   180.000000     0.866025     0.500000     0.000000     0.000000     0.000001     0.250000

 SYSTEM =  monolayer MoS2
 POSCAR =  MoS2

 Startparameter for this run:
   NWRITE =      2    write-flag & timer
   PREC   = normal    normal or accurate (medium, high low for compatibility)
   ISTART =      0    job   : 0-new  1-cont  2-samecut
   ICHARG =     11    charge: 1-file 2-atom 10-const
   ISPIN  =      1    spin polarized calculation?
   LNONCOLLINEAR =      F non collinear calculations
   LSORBIT =      F    spin-orbit coupling
   INIWAV =      1    electr: 0-lowe 1-rand  2-diag
   LASPH  =      F    aspherical Exc in radial PAW
   METAGGA=      F    non-selfconsistent MetaGGA calc.

 Electronic Relaxation 1
   ENCUT  =  280.0 eV  20.58 Ry    4.54 a.u.   4.35  4.35 40.60*2*pi/ulx,y,z
   ENINI  =  280.0     initial cutoff
   ENAUG  =  345.3 eV  augmentation charge cutoff
   NELM   =     60;   NELMIN=  2; NELMDL= -5     # of ELM steps
   EDIFF  = 0.1E-05   stopping-criterion for ELM
   LREAL  =      F    real-space projection
   NLSPLINE    = F    spline interpolate recip. space projectors
   LCOMPAT=      F    compatible to vasp.4.4
   GGA_COMPAT  = T    GGA compatible to vasp.4.4-vasp.4.6
   LMAXPAW     = -100 max onsite density
   LMAXMIX     =    2 max onsite mixed and CHGCAR
   VOSKOWN=      0    Vosko Wilk Nusair interpolation
   ROPT   =    0.00000   0.00000
 Ionic relaxation
   EDIFFG = 0.1E-04   stopping-criterion for IOM
   NSW    =      0    number of steps for IOM
   NBLOCK =      1;   KBLOCK =      1    inner block; outer block
   IBRION =     -1    ionic relax: 0-MD 1-quasi-New 2-CG
   NFREE  =      0    steps in history (QN), initial steepest desc. (CG)
   ISIF   =      2    stress and relaxation
   IWAVPR =     10    prediction:  0-non 1-charg 2-wave 3-comb
   ISYM   =      2    0-nonsym 1-usesym 2-fastsym
   LCORR  =      T    Harris-Foulkes like correction to forces

   POTIM  = 0.5000    time-step for ionic-motion
   TEIN   =    0.0    initial temperature
   TEBEG  =    0.0;   TEEND  =   0.0 temperature during run
   SMASS  =  -3.00    Nose mass-parameter (am)
   estimated Nose-frequenzy (Omega)   =  0.10E-29 period in steps =****** mass=  -0.233E-27a.u.
   SCALEE = 1.0000    scale energy and forces
   NPACO  =    256;   APACO  = 16.0  distance and # of slots for P.C.
   PSTRESS=    0.0 pullay stress

  Mass of Ions in am
   POMASS =  95.94 32.07
  Ionic Valenz
   ZVAL   =   6.00  6.00
  Atomic Wigner-Seitz radii
  virtual crystal weights
   VCA    =   1.00  1.00
   NELECT =      18.0000    total number of electrons
   NUPDOWN=      -1.0000    fix difference up-down

 DOS related values:
   EMIN   =  10.00;   EMAX   =-10.00  energy-range for DOS
   EFERMI =   0.00
   ISMEAR =     1;   SIGMA  =   0.20  broadening in eV -4-tet -1-fermi 0-gaus

 Electronic relaxation 2 (details)
   IALGO  =     38    algorithm
   LDIAG  =      T    sub-space diagonalisation (order eigenvalues)
   LSUBROT=      F    optimize rotation matrix (better conditioning)
   TURBO    =      0    0=normal 1=particle mesh
   IRESTART =      0    0=no restart 2=restart with 2 vectors
   NREBOOT  =      0    no. of reboots
   NMIN     =      0    reboot dimension
   EREF     =   0.00    reference energy to select bands
   IMIX   =      4    mixing-type and parameters
     AMIX     =   0.40;   BMIX     =  1.00
     AMIX_MAG =   1.60;   BMIX_MAG =  1.00
     AMIN     =   0.10
     WC   =   100.;   INIMIX=   1;  MIXPRE=   1;  MAXMIX= -45

 Intra band minimization:
   WEIMIN = 0.0000     energy-eigenvalue tresh-hold
   EBREAK =  0.19E-07  absolut break condition
   DEPER  =   0.30     relativ break condition

   TIME   =   0.40     timestep for ELM

  volume/ion in A,a.u.               =      87.43       590.03
  Fermi-wavevector in a.u.,A,eV,Ry     =   0.670242  1.266574  6.112072  0.449225
  Thomas-Fermi vector in A             =   1.745701

 Write flags
   LWAVE        =      F    write WAVECAR
   LDOWNSAMPLE  =      F    k-point downsampling of WAVECAR
   LCHARG       =      F    write CHGCAR
   LVTOT        =      F    write LOCPOT, total local potential
   LVHAR        =      F    write LOCPOT, Hartree potential only
   LELF         =      F    write electronic localiz. function (ELF)
   LORBIT       =      0    0 simple, 1 ext, 2 COOP (PROOUT), +10 PAW based schemes

 Dipole corrections
   LMONO  =      F    monopole corrections only (constant potential shift)
   LDIPOL =      F    correct potential (dipole corrections)
   IDIPOL =      0    1-x, 2-y, 3-z, 4-all directions
   EPSILON=  1.0000000 bulk dielectric constant

 Exchange correlation treatment:
   GGA     =    --    GGA type
   VOSKOWN=      0    Vosko Wilk Nusair interpolation
   LHFCALC =     F    Hartree Fock is set to
   LHFONE  =     F    Hartree Fock one center treatment
   AEXX    =    0.0000 exact exchange contribution

 Linear response parameters
   LEPSILON=     F    determine dielectric tensor
   LRPA    =     F    only Hartree local field effects (RPA)
   LNABLA  =     F    use nabla operator in PAW spheres
   LVEL    =     F    velocity operator in full k-point grid
   LINTERFAST=   F  fast interpolation
   KINTER  =     0    interpolate to denser k-point grid
   CSHIFT  =0.1000    complex shift for real part using Kramers Kronig
   OMEGAMAX=  -1.0    maximum frequency
   DEG_THRESHOLD= 0.2000000E-02 threshold for treating states as degnerate
   RTIME   =   -0.100 relaxation time in fs
  (WPLASMAI=    0.000 imaginary part of plasma frequency in eV, 0.658/RTIME)
   DFIELD  = 0.0000000 0.0000000 0.0000000 field for delta impulse in time

 Orbital magnetization related:
   ORBITALMAG=     F  switch on orbital magnetization
   LCHIMAG   =     F  perturbation theory with respect to B field
   DQ        =  0.001000  dq finite difference perturbation B field
   LLRAUG    =     F  two centre corrections for induced B field

 Static calculation
 charge density and potential remain constant during run
 non-spin polarized calculation
 Variant of blocked Davidson
 Davidson routine will perform the subspace rotation
 perform sub-space diagonalisation
    after iterative eigenvector-optimisation
 no mixing
 using additional bands            4
 reciprocal scheme for non local part
 use partial core corrections
 calculate Harris-corrections to forces
   (improved forces if not selfconsistent)
 use gradient corrections
 WARNING: stress and forces are not correct
  (second derivative of E(xc) not defined)
 use of overlap-Matrix (Vanderbilt PP)
 Methfessel and Paxton  Order N= 1 SIGMA  =   0.20

  energy-cutoff  :      280.00
  volume of cell :      262.30
      direct lattice vectors                 reciprocal lattice vectors
     3.190316000  0.000000000  0.000000000     0.313448574  0.180969664  0.000000000
    -1.595158000  2.762894000  0.000000000     0.000000000  0.361939329  0.000000000
     0.000000000  0.000000000 29.758000000     0.000000000  0.000000000  0.033604409

  length of vectors
     3.190316000  3.190315392 29.758000000     0.361939260  0.361939329  0.033604409

 k-points in units of 2pi/SCALE and weight: Hexagonal lattice 40
   0.00000000  0.00000000  0.00000000       0.033
   0.01741381  0.01005387  0.00000000       0.033
   0.03482762  0.02010774  0.00000000       0.033
   0.05224143  0.03016161  0.00000000       0.033
   0.06965524  0.04021548  0.00000000       0.033
   0.08706905  0.05026935  0.00000000       0.033
   0.10448286  0.06032322  0.00000000       0.033
   0.12189667  0.07037709  0.00000000       0.033
   0.13931048  0.08043096  0.00000000       0.033
   0.15672429  0.09048483  0.00000000       0.033
   0.15672429  0.09048483  0.00000000       0.033
   0.15091968  0.10053870  0.00000000       0.033
   0.14511508  0.11059257  0.00000000       0.033
   0.13931048  0.12064644  0.00000000       0.033
   0.13350587  0.13070031  0.00000000       0.033
   0.12770127  0.14075418  0.00000000       0.033
   0.12189667  0.15080805  0.00000000       0.033
   0.11609206  0.16086192  0.00000000       0.033
   0.11028746  0.17091579  0.00000000       0.033
   0.10448286  0.18096966  0.00000000       0.033
   0.10448286  0.18096966  0.00000000       0.033
   0.09287365  0.16086192  0.00000000       0.033
   0.08126445  0.14075418  0.00000000       0.033
   0.06965524  0.12064644  0.00000000       0.033
   0.05804603  0.10053870  0.00000000       0.033
   0.04643683  0.08043096  0.00000000       0.033
   0.03482762  0.06032322  0.00000000       0.033
   0.02321841  0.04021548  0.00000000       0.033
   0.01160921  0.02010774  0.00000000       0.033
   0.00000000  0.00000000  0.00000000       0.033

 k-points in reciprocal lattice and weights: Hexagonal lattice 40
   0.00000000  0.00000000  0.00000000       0.033
   0.05555556  0.00000000  0.00000000       0.033
   0.11111111  0.00000000  0.00000000       0.033
   0.16666667  0.00000000  0.00000000       0.033
   0.22222222  0.00000000  0.00000000       0.033
   0.27777778  0.00000000  0.00000000       0.033
   0.33333333  0.00000000  0.00000000       0.033
   0.38888889  0.00000000  0.00000000       0.033
   0.44444444  0.00000000  0.00000000       0.033
   0.50000000  0.00000000  0.00000000       0.033
   0.50000000  0.00000000  0.00000000       0.033
   0.48148148  0.03703704  0.00000000       0.033
   0.46296296  0.07407407  0.00000000       0.033
   0.44444444  0.11111111  0.00000000       0.033
   0.42592593  0.14814815  0.00000000       0.033
   0.40740741  0.18518519  0.00000000       0.033
   0.38888889  0.22222222  0.00000000       0.033
   0.37037037  0.25925926  0.00000000       0.033
   0.35185185  0.29629630  0.00000000       0.033
   0.33333333  0.33333333  0.00000000       0.033
   0.33333333  0.33333333  0.00000000       0.033
   0.29629630  0.29629630  0.00000000       0.033
   0.25925926  0.25925926  0.00000000       0.033
   0.22222222  0.22222222  0.00000000       0.033
   0.18518519  0.18518519  0.00000000       0.033
   0.14814815  0.14814815  0.00000000       0.033
   0.11111111  0.11111111  0.00000000       0.033
   0.07407407  0.07407407  0.00000000       0.033
   0.03703704  0.03703704  0.00000000       0.033
   0.00000000  0.00000000  0.00000000       0.033

 position of ions in fractional coordinates (direct lattice)
   0.33333300  0.66666700  0.12500000
   0.66666700  0.33333300  0.17758700
   0.66666700  0.33333300  0.07241300

 position of ions in cartesian coordinates  (Angst):
  -0.00000160  1.84193025  3.71975000
   1.59515960  0.92096375  5.28463395
   1.59515960  0.92096375  2.15486605

 k-point  1 :   0.0000 0.0000 0.0000  plane waves:    2859
 k-point  2 :   0.0556 0.0000 0.0000  plane waves:    2869
 k-point  3 :   0.1111 0.0000 0.0000  plane waves:    2841
 k-point  4 :   0.1667 0.0000 0.0000  plane waves:    2821
 k-point  5 :   0.2222 0.0000 0.0000  plane waves:    2793
 k-point  6 :   0.2778 0.0000 0.0000  plane waves:    2794
 k-point  7 :   0.3333 0.0000 0.0000  plane waves:    2780
 k-point  8 :   0.3889 0.0000 0.0000  plane waves:    2764
 k-point  9 :   0.4444 0.0000 0.0000  plane waves:    2760
 k-point 10 :   0.5000 0.0000 0.0000  plane waves:    2768
 k-point 11 :   0.5000 0.0000 0.0000  plane waves:    2768
 k-point 12 :   0.4815 0.0370 0.0000  plane waves:    2778
 k-point 13 :   0.4630 0.0741 0.0000  plane waves:    2786
 k-point 14 :   0.4444 0.1111 0.0000  plane waves:    2794
 k-point 15 :   0.4259 0.1481 0.0000  plane waves:    2790
 k-point 16 :   0.4074 0.1852 0.0000  plane waves:    2788
 k-point 17 :   0.3889 0.2222 0.0000  plane waves:    2784
 k-point 18 :   0.3704 0.2593 0.0000  plane waves:    2780
 k-point 19 :   0.3519 0.2963 0.0000  plane waves:    2764
 k-point 20 :   0.3333 0.3333 0.0000  plane waves:    2760
 k-point 21 :   0.3333 0.3333 0.0000  plane waves:    2760
 k-point 22 :   0.2963 0.2963 0.0000  plane waves:    2778
 k-point 23 :   0.2593 0.2593 0.0000  plane waves:    2798
 k-point 24 :   0.2222 0.2222 0.0000  plane waves:    2790
 k-point 25 :   0.1852 0.1852 0.0000  plane waves:    2790
 k-point 26 :   0.1481 0.1481 0.0000  plane waves:    2783
 k-point 27 :   0.1111 0.1111 0.0000  plane waves:    2813
 k-point 28 :   0.0741 0.0741 0.0000  plane waves:    2837
 k-point 29 :   0.0370 0.0370 0.0000  plane waves:    2863
 k-point 30 :   0.0000 0.0000 0.0000  plane waves:    2859

 maximum and minimum number of plane-waves per node :      2869     2760

 maximum number of plane-waves:      2869
 maximum index in each direction:
   IXMAX=    4   IYMAX=    4   IZMAX=   40
   IXMIN=   -4   IYMIN=   -4   IZMIN=  -40

 serial   3D FFT for wavefunctions
 parallel 3D FFT for charge:
    minimum data exchange during FFTs selected (reduces bandwidth)

 initial charge density was supplied:
 number of electron      17.9999973 magnetization
 keeping initial charge density in first step

 Maximum index for augmentation-charges         5838 (set IRDMAX)

 First call to EWALD:  gamma=   0.277
 Maximum number of real-space cells 6x 6x 1
 Maximum number of reciprocal cells 2x 2x11

--------------------------------------- Iteration      1(   1)  ---------------------------------------

 eigenvalue-minimisations  :   780
 total energy-change (2. order) : 0.1149255E+03  (-0.4273960E+03)
 number of electron      17.9999973 magnetization
 augmentation part       17.9999973 magnetization

 Free energy of the ion-electron system (eV)
  alpha Z        PSCENC =        10.00292264
  Ewald energy   TEWEN  =      5064.60431233
  -Hartree energ DENC   =     -5753.49340551
  -exchange      EXHF   =         0.00000000
  -V(xc)+E(xc)   XCENC  =       -35.90682317
  PAW double counting   =       477.53355177     -401.45553920
  entropy T*S    EENTRO =        -0.00526782
  eigenvalues    EBANDS =       -18.86818905
  atomic energy  EATOM  =       772.51394549
  Solvation  Ediel_sol  =         0.00000000
  free energy    TOTEN  =       114.92550749 eV

  energy without entropy =      114.93077531  energy(sigma->0) =      114.92726343

[...]

 eigenvalue-minimisations  :  1385
 total energy-change (2. order) :-0.1225006E+03  (-0.1136509E+03)
 number of electron      17.9999973 magnetization
 augmentation part       17.9999973 magnetization

[...]

--------------------------------------- Iteration      1(   8)  ---------------------------------------

 eigenvalue-minimisations  :   887
 total energy-change (2. order) :-0.3721252E-06  (-0.3720662E-06)
 number of electron      17.9999973 magnetization
 augmentation part       17.9999973 magnetization

 Free energy of the ion-electron system (eV)
  alpha Z        PSCENC =        10.00292264
  Ewald energy   TEWEN  =      5064.60431233
  -Hartree energ DENC   =     -5753.49340551
  -exchange      EXHF   =         0.00000000
  -V(xc)+E(xc)   XCENC  =       -35.90682317
  PAW double counting   =       477.53355177     -401.45553920
  entropy T*S    EENTRO =         0.00528548
  eigenvalues    EBANDS =      -155.22501722
  atomic energy  EATOM  =       772.51394549
  Solvation  Ediel_sol  =         0.00000000
  free energy    TOTEN  =       -21.42076739 eV

  energy without entropy =      -21.42605286  energy(sigma->0) =      -21.42252921

 average (electrostatic) potential at core
  the test charge radii are     1.2296  0.9698
  (the norm of the test charge is              1.0000)
       1 -47.1867       2-111.4896       3-111.4896

 E-fermi :  -3.5388     XC(G=0):  -2.5573     alpha+bet : -2.4800

 k-point     1 :       0.0000    0.0000    0.0000
  band No.  band energies     occupation
      1     -17.6671      2.00000
      2     -16.4645      2.00000
      3      -9.1901      2.00000
      4      -6.2516      2.00000
      5      -6.2516      2.00000
      6      -5.3879      2.00000
      7      -5.1417      2.00000
      8      -5.1417      2.00000
      9      -3.6763      1.91099
     10      -0.8973     -0.00000
     11      -0.8972     -0.00000
     12      -0.6836     -0.00000
     13      -0.6836     -0.00000

[...]

 k-point    30 :       0.0000    0.0000    0.0000
  band No.  band energies     occupation
      1     -17.6671      2.00000
      2     -16.4645      2.00000
      3      -9.1901      2.00000
      4      -6.2516      2.00000
      5      -6.2516      2.00000
      6      -5.3879      2.00000
      7      -5.1417      2.00000
      8      -5.1417      2.00000
      9      -3.6763      1.91099
     10      -0.8972     -0.00000
     11      -0.8972     -0.00000
     12      -0.6836     -0.00000
     13      -0.6836     -0.00000

 soft charge-density along one line, spin component           1
         0         1         2         3         4         5         6         7         8         9
 total charge-density along one line

------------------------ aborting loop because EDIFF is reached ----------------------------------------

  FORCE on cell =-STRESS in cart. coord.  units (eV):
  Direction    XX          YY          ZZ          XY          YZ          ZX
  Alpha Z    10.00292    10.00292    10.00292
  Ewald    5631.47057  5631.47106 -6198.33776     0.00038    -0.00000    -0.00000
  Hartree  5717.81210  5717.81210 -5679.24541     0.00001    -0.00000     0.00000
  E(xc)     -70.43812   -70.43815   -70.97724    -0.00003    -0.00000     0.00000
  Local  -11649.23865-11649.23931 11568.68651    -0.00060    -0.00000     0.00000
  n-local   164.14723   164.10439   171.48385    -0.39290     0.00001    -0.00000
  augment   -41.86057   -41.86036   -43.69691     0.00019    -0.00000     0.00000
  Kinetic   235.23510   239.85880   242.66381    -6.18144    -0.00001     0.00000
  Fock        0.00000     0.00000     0.00000     0.00000     0.00000     0.00000
  Total      -0.57898    -0.57898     0.57977     0.00000     0.00000     0.00000
  in kB      -3.53648    -3.53648     3.54129     0.00000     0.00000     0.00000

 VOLUME and BASIS-vectors are now :
  energy-cutoff  :      280.00
  volume of cell :      262.30
      direct lattice vectors                 reciprocal lattice vectors
     3.190316000  0.000000000  0.000000000     0.313448574  0.180969664  0.000000000
    -1.595158000  2.762894000  0.000000000     0.000000000  0.361939329  0.000000000
     0.000000000  0.000000000 29.758000000     0.000000000  0.000000000  0.033604409

  length of vectors
     3.190316000  3.190315392 29.758000000     0.361939260  0.361939329  0.033604409

 FORCES acting on ions
    electron-ion (+dipol)            ewald-force                    non-local-force                 convergence-correction
   0.135E-04 0.113E-04 -.103E-05   0.186E-03 -.138E-03 0.000E+00   0.104E-16 0.208E-16 -.212E-21   -.188E-05 0.105E-05 0.177E-08
   -.960E-03 0.545E-03 -.594E+03   -.929E-04 0.688E-04 0.596E+03   0.312E-16 0.000E+00 -.464E+01   -.259E-05 0.174E-05 0.212E+01
   -.961E-03 0.545E-03 0.594E+03   -.929E-04 0.688E-04 -.596E+03   0.416E-16 0.000E+00 0.464E+01   -.260E-05 0.174E-05 -.212E+01
   -.191E-02 0.110E-02 0.246E-04   0.450E-16 0.822E-14 0.000E+00   0.833E-16 0.208E-16 0.888E-15   -.707E-05 0.453E-05 -.109E-07

 POSITION                                       TOTAL-FORCE (eV/Angst)
     -0.00000      1.84193      3.71975         0.000000     -0.000000      0.000000
      1.59516      0.92096      5.28463        -0.000000      0.000000      0.110083
      1.59516      0.92096      2.15487        -0.000000      0.000000     -0.110083
    total drift:                               -0.001914      0.001106      0.000025

  FREE ENERGIE OF THE ION-ELECTRON SYSTEM (eV)
  free  energy   TOTEN  =       -21.42076739 eV

  energy  without entropy=      -21.42605286  energy(sigma->0) =      -21.42252921