 vasp.5.3.5 31Mar14 (build Dec 14 2018 19:18:10) complex

 INCAR:
 POTCAR:    PAW C
 POTCAR:    PAW C
   VRHFIN =C: s2p2

   TITEL  = PAW C
   POMASS =   12.011; ZVAL   =    4.000    mass and valenz
   ENMAX  =  400.000; ENMIN  =  300.000 eV
   QCUT   =   -5.516; QGAM   =   11.032    optimization parameters

   Description
     l     E      TYP  RCUT    TYP  RCUT
     0   .000     23  1.200
     0   .000     23  1.200
     1   .000     23  1.500
     1  2.500     23  1.500
     2   .000      7  1.500

  PAW C                                 :

 POSCAR: graphite
  positions in direct lattice
  velocities in cartesian coordinates
 exchange correlation table for  LEXCH =        2
   RHO(1)=    0.500       N(1)  =     2000
   RHO(2)=  100.500       N(2)  =     4000

 ion  position               nearest neighbor table
   1  0.000  0.000  0.000-   2 1.41   2 1.41   2 1.41
   2  0.333  0.667  0.000-   1 1.41   1 1.41   1 1.41
   3  0.667  0.333  0.500-   4 1.41   4 1.41   4 1.41
   4  0.000  0.000  0.500-   3 1.41   3 1.41   3 1.41

  LATTYP: Found a hexagonal cell.
 ALAT       =     2.4499999983
 C/A-ratio  =     2.7346938799

  Lattice vectors:

 A1 = (   2.4500000000,   0.0000000000,   0.0000000000)
 A2 = (  -1.2250000000,   2.1217622374,   0.0000000000)
 A3 = (   0.0000000000,   0.0000000000,   6.7000000011)

Analysis of symmetry for initial positions (statically):
 Subroutine PRICEL returns:
 Original cell was already a primitive cell.

 Routine SETGRP: Setting up the symmetry group for a
 hexagonal supercell.

 Subroutine GETGRP returns: Found 24 space group operations
 (whereof 12 operations were pure point group operations)
 out of a pool of 24 trial point group operations.

The static configuration has the point symmetry D_3h.
 The point group associated with its full space group is D_6h.

Analysis of symmetry for dynamics (positions and initial velocities):
 Subroutine PRICEL returns:
 Original cell was already a primitive cell.

 Routine SETGRP: Setting up the symmetry group for a
 hexagonal supercell.

 Subroutine GETGRP returns: Found 24 space group operations
 (whereof 12 operations were pure point group operations)
 out of a pool of 24 trial point group operations.

The dynamic configuration has the point symmetry D_3h.
 The point group associated with its full space group is D_6h.

 KPOINTS: 16X16x6

Automatic generation of k-mesh.
Space group operators:
 irot       det(A)        alpha          n_x          n_y          n_z        tau_x        tau_y        tau_z
    1     1.000000     0.000001     1.000000     0.000000     0.000000     0.000000     0.000000     0.000000
    2    -1.000000    60.000000     0.000000     0.000000    -1.000000     0.000000     0.000000     0.000000
    3     1.000000   120.000000     0.000000     0.000000    -1.000000     0.000000     0.000000     0.000000
    4    -1.000000   180.000000     0.000000     0.000000     1.000000     0.000000     0.000000     0.000000
    5     1.000000   120.000000     0.000000     0.000000     1.000000     0.000000     0.000000     0.000000
    6    -1.000000    60.000000     0.000000     0.000000     1.000000     0.000000     0.000000     0.000000
    7    -1.000000   180.000000     1.000000     0.000000     0.000000     0.000000     0.000000     0.000000
    8     1.000000   180.000000     0.866025    -0.500000     0.000000     0.000000     0.000000     0.000000
    9    -1.000000   180.000000     0.500000    -0.866025     0.000000     0.000000     0.000000     0.000000
   10     1.000000   179.999999     0.000000     1.000000     0.000000     0.000000     0.000000     0.000000
   11    -1.000000   180.000000    -0.500000    -0.866025     0.000000     0.000000     0.000000     0.000000
   12     1.000000   180.000000     0.866025     0.500000     0.000000     0.000000     0.000000     0.000000
   13    -1.000000     0.000001     1.000000     0.000000     0.000000     0.000000     0.000000     0.500000
   14     1.000000    60.000000     0.000000     0.000000    -1.000000     0.000000     0.000000     0.500000
   15    -1.000000   120.000000     0.000000     0.000000    -1.000000     0.000000     0.000000     0.500000
   16     1.000000   180.000000     0.000000     0.000000     1.000000     0.000000     0.000000     0.500000
   17    -1.000000   120.000000     0.000000     0.000000     1.000000     0.000000     0.000000     0.500000
   18     1.000000    60.000000     0.000000     0.000000     1.000000     0.000000     0.000000     0.500000
   19     1.000000   180.000000     1.000000     0.000000     0.000000     0.000000     0.000000     0.500000
   20    -1.000000   180.000000     0.866025    -0.500000     0.000000     0.000000     0.000000     0.500000
   21     1.000000   180.000000     0.500000    -0.866025     0.000000     0.000000     0.000000     0.500000
   22    -1.000000   179.999999     0.000000     1.000000     0.000000     0.000000     0.000000     0.500000
   23     1.000000   180.000000    -0.500000    -0.866025     0.000000     0.000000     0.000000     0.500000
   24    -1.000000   180.000000     0.866025     0.500000     0.000000     0.000000     0.000000     0.500000

 Subroutine IBZKPT returns following result:

 Found    120 irreducible k-points:

 Following reciprocal coordinates:
            Coordinates               Weight
  0.000000  0.000000  0.000000      1.000000
  0.062500  0.000000  0.000000      6.000000
  0.125000  0.000000  0.000000      6.000000
  0.187500  0.000000  0.000000      6.000000
  0.250000  0.000000  0.000000      6.000000
  0.312500  0.000000  0.000000      6.000000
  0.375000  0.000000  0.000000      6.000000
  0.437500  0.000000  0.000000      6.000000
  0.500000  0.000000  0.000000      3.000000
  0.062500  0.062500  0.000000      6.000000
  0.125000  0.062500  0.000000     12.000000
  0.187500  0.062500  0.000000     12.000000
  0.250000  0.062500  0.000000     12.000000
  0.312500  0.062500  0.000000     12.000000
  0.375000  0.062500  0.000000     12.000000
  0.437500  0.062500  0.000000     12.000000
  0.125000  0.125000  0.000000      6.000000
  0.187500  0.125000  0.000000     12.000000
  0.250000  0.125000  0.000000     12.000000
  0.312500  0.125000  0.000000     12.000000
  0.375000  0.125000  0.000000     12.000000
  0.437500  0.125000  0.000000      6.000000
  0.187500  0.187500  0.000000      6.000000
  0.250000  0.187500  0.000000     12.000000
  0.312500  0.187500  0.000000     12.000000
  0.375000  0.187500  0.000000     12.000000
  0.250000  0.250000  0.000000      6.000000
  0.312500  0.250000  0.000000     12.000000
  0.375000  0.250000  0.000000      6.000000
  0.312500  0.312500  0.000000      6.000000
  0.000000  0.000000  0.166667      2.000000
  0.062500  0.000000  0.166667     12.000000
  0.125000  0.000000  0.166667     12.000000
  0.187500  0.000000  0.166667     12.000000
  0.250000  0.000000  0.166667     12.000000
  0.312500  0.000000  0.166667     12.000000
  0.375000  0.000000  0.166667     12.000000
  0.437500  0.000000  0.166667     12.000000
  0.500000  0.000000  0.166667      6.000000
  0.062500  0.062500  0.166667     12.000000
  0.125000  0.062500  0.166667     24.000000
  0.187500  0.062500  0.166667     24.000000
  0.250000  0.062500  0.166667     24.000000
  0.312500  0.062500  0.166667     24.000000
  0.375000  0.062500  0.166667     24.000000
  0.437500  0.062500  0.166667     24.000000
  0.125000  0.125000  0.166667     12.000000
  0.187500  0.125000  0.166667     24.000000
  0.250000  0.125000  0.166667     24.000000
  0.312500  0.125000  0.166667     24.000000
  0.375000  0.125000  0.166667     24.000000
  0.437500  0.125000  0.166667     12.000000
  0.187500  0.187500  0.166667     12.000000
  0.250000  0.187500  0.166667     24.000000
  0.312500  0.187500  0.166667     24.000000
  0.375000  0.187500  0.166667     24.000000
  0.250000  0.250000  0.166667     12.000000
  0.312500  0.250000  0.166667     24.000000
  0.375000  0.250000  0.166667     12.000000
  0.312500  0.312500  0.166667     12.000000
[...]
  0.437500  0.062500  0.500000     12.000000
  0.125000  0.125000  0.500000      6.000000
  0.187500  0.125000  0.500000     12.000000
  0.250000  0.125000  0.500000     12.000000
  0.312500  0.125000  0.500000     12.000000
  0.375000  0.125000  0.500000     12.000000
  0.437500  0.125000  0.500000      6.000000
  0.187500  0.187500  0.500000      6.000000
  0.250000  0.187500  0.500000     12.000000
  0.312500  0.187500  0.500000     12.000000
  0.375000  0.187500  0.500000     12.000000
  0.250000  0.250000  0.500000      6.000000
  0.312500  0.250000  0.500000     12.000000
  0.375000  0.250000  0.500000      6.000000
  0.312500  0.312500  0.500000      6.000000

 Following cartesian coordinates:
            Coordinates               Weight
  0.000000  0.000000  0.000000      1.000000
  0.062500  0.036084  0.000000      6.000000
  0.125000  0.072169  0.000000      6.000000
  0.187500  0.108253  0.000000      6.000000
  0.250000  0.144338  0.000000      6.000000
  0.312500  0.180422  0.000000      6.000000
  0.375000  0.216506  0.000000      6.000000
  0.437500  0.252591  0.000000      6.000000
  0.500000  0.288675  0.000000      3.000000
  0.062500  0.108253  0.000000      6.000000
  0.125000  0.144338  0.000000     12.000000
  0.187500  0.180422  0.000000     12.000000
  0.250000  0.216506  0.000000     12.000000
  0.312500  0.252591  0.000000     12.000000
  0.375000  0.288675  0.000000     12.000000
  0.437500  0.324760  0.000000     12.000000
  0.125000  0.216506  0.000000      6.000000
  0.187500  0.252591  0.000000     12.000000
  0.250000  0.288675  0.000000     12.000000
  0.312500  0.324760  0.000000     12.000000
  0.375000  0.360844  0.000000     12.000000
  0.437500  0.396928  0.000000      6.000000
  0.187500  0.324760  0.000000      6.000000
  0.250000  0.360844  0.000000     12.000000
  0.312500  0.396928  0.000000     12.000000
  0.375000  0.433013  0.000000     12.000000
  0.250000  0.433013  0.000000      6.000000
  0.312500  0.469097  0.000000     12.000000
  0.375000  0.505181  0.000000      6.000000
  0.312500  0.541266  0.000000      6.000000
  0.000000  0.000000  0.060945      2.000000
  0.062500  0.036084  0.060945     12.000000
  0.125000  0.072169  0.060945     12.000000
  0.187500  0.108253  0.060945     12.000000
  0.250000  0.144338  0.060945     12.000000
  0.312500  0.180422  0.060945     12.000000
  0.375000  0.216506  0.060945     12.000000
  0.437500  0.252591  0.060945     12.000000
  0.500000  0.288675  0.060945      6.000000
  0.062500  0.108253  0.060945     12.000000
  0.125000  0.144338  0.060945     24.000000
  0.187500  0.180422  0.060945     24.000000
  0.250000  0.216506  0.060945     24.000000
  0.312500  0.252591  0.060945     24.000000
  0.375000  0.288675  0.060945     24.000000
  0.437500  0.324760  0.060945     24.000000
  0.125000  0.216506  0.060945     12.000000
  0.187500  0.252591  0.060945     24.000000
  0.250000  0.288675  0.060945     24.000000
  0.312500  0.324760  0.060945     24.000000
  0.375000  0.360844  0.060945     24.000000
  0.437500  0.396928  0.060945     12.000000
  0.187500  0.324760  0.060945     12.000000
[...]

 VOLUME and BASIS-vectors are now :
  energy-cutoff  :      400.00
  volume of cell :       34.83
      direct lattice vectors                 reciprocal lattice vectors
     2.450000000  0.000000000  0.000000000     0.408163265  0.235653171  0.000000000
    -1.225000000  2.121762237  0.000000000     0.000000000  0.471306343  0.000000000
     0.000000000  0.000000000  6.700000001     0.000000000  0.000000000  0.149253731

  length of vectors
     2.450000000  2.449999998  6.700000001     0.471306342  0.471306343  0.149253731

 FORCES acting on ions
    electron-ion (+dipol)            ewald-force                    non-local-force                 convergence-correction
   0.135E-03 -.778E-04 -.264E-15   0.633E-11 -.201E-06 -.184E-13   0.139E-15 0.111E-15 0.000E+00   -.177E-05 0.102E-05 -.375E-14
   -.135E-03 0.778E-04 0.107E-14   -.634E-11 0.201E-06 -.184E-13   -.694E-16 0.111E-15 0.000E+00   0.177E-05 -.102E-05 -.339E-14
   0.135E-03 -.778E-04 0.527E-13   0.634E-11 -.201E-06 0.184E-13   0.125E-15 -.111E-15 0.000E+00   -.177E-05 0.102E-05 -.175E-13
   -.135E-03 0.778E-04 0.811E-13   -.632E-11 0.201E-06 0.184E-13   -.125E-15 -.111E-15 0.000E+00   0.177E-05 -.102E-05 -.200E-13
   0.818E-12 -.524E-12 0.135E-12   0.836E-14 0.411E-14 0.000E+00   0.694E-16 0.000E+00 0.000E+00   -.473E-14 -.871E-14 -.447E-13

 POSITION                                       TOTAL-FORCE (eV/Angst)
      0.00000      0.00000      0.00000         0.000000      0.000000      0.000000
      0.00000      1.41451      0.00000         0.000000      0.000000      0.000000
      1.22500      0.70725      3.35000        -0.000000     -0.000000      0.000000
      0.00000      0.00000      3.35000        -0.000000     -0.000000      0.000000
    total drift:                                0.000000     -0.000000      0.000000

  FREE ENERGIE OF THE ION-ELECTRON SYSTEM (eV)
  free  energy   TOTEN  =       -40.50096096 eV

  energy  without entropy=      -40.50096096  energy(sigma->0) =      -40.50096096

 writing wavefunctions

 plasma frequency squared (from intraband transitions)
       0.000       0.000       0.000
       0.000       0.000       0.000
       0.000       0.000       0.000

 electrical conductivity sigma (Mega S m-1) (frequency dependency in vasprun.xml)
       0.000       0.000       0.000
       0.000       0.000       0.000
       0.000       0.000       0.000

 plasma frequency squared (from intraband transitions)

 plasma frequency squared (from interband transitions, int dw w eps(2)(w)
     202.771       0.000      -0.000
       0.000     202.771       0.000
       0.000       0.000     178.812
 plasma frequency squared  (valence only):     633.440

  frequency dependent IMAGINARY DIELECTRIC FUNCTION (independent particle, no local field effects)
     E(ev)      X         Y         Z        XY        YZ        ZX
    0.000000    0.000000    0.000000    0.000000    0.000000    0.000000    0.000000
    0.037779    0.121280    0.121280    0.001047   -0.000000   -0.000000   -0.000000
    0.075559    0.246165    0.246165    0.002102   -0.000000   -0.000000   -0.000000
    0.113338    0.378593    0.378593    0.003169   -0.000000   -0.000000   -0.000000
    0.151118    0.523236    0.523236    0.004257   -0.000000   -0.000000   -0.000000
    0.188897    0.686040    0.686040    0.005373   -0.000000   -0.000000   -0.000000
    0.226677    0.875032    0.875032    0.006525   -0.000000   -0.000000   -0.000000
    0.264456    1.101627    1.101627    0.007723   -0.000000   -0.000000   -0.000000
    0.302236    1.382804    1.382804    0.008977   -0.000000   -0.000000   -0.000000
    0.340015    1.744903    1.744903    0.010299   -0.000000   -0.000000   -0.000000
    0.377795    2.230302    2.230302    0.011704   -0.000000   -0.000000   -0.000000
    0.415574    2.908648    2.908648    0.013207   -0.000000   -0.000000   -0.000000
    0.453354    3.891599    3.891599    0.014831   -0.000000   -0.000000   -0.000000
    0.491133    5.327814    5.327814    0.016600   -0.000000   -0.000000   -0.000000
    0.528913    7.271128    7.271128    0.018548   -0.000000   -0.000000   -0.000000
    0.566692    9.319013    9.319013    0.020717   -0.000000   -0.000000   -0.000000
    0.604472   10.704359   10.704359    0.023160   -0.000000   -0.000000   -0.000000
    0.642251   11.248936   11.248936    0.025952   -0.000000   -0.000000   -0.000000
    0.680031   11.426546   11.426546    0.029191   -0.000000   -0.000000   -0.000000
    0.717810   11.585226   11.585226    0.033017   -0.000000   -0.000000   -0.000000
    0.755590   11.781574   11.781574    0.037640   -0.000000   -0.000000   -0.000000
    0.793369   11.975888   11.975888    0.043372   -0.000000   -0.000000   -0.000000
    0.831149   12.118802   12.118802    0.050660   -0.000000   -0.000000   -0.000000
    0.868928   12.176901   12.176901    0.059997   -0.000000   -0.000000   -0.000000
    0.906708   12.170304   12.170304    0.071556   -0.000000   -0.000000   -0.000000
    0.944487   12.170230   12.170230    0.085118    0.000000   -0.000000   -0.000000
    0.982267   12.219611   12.219611    0.100750    0.000000   -0.000000   -0.000000
    1.020046   12.323241   12.323241    0.119095    0.000000   -0.000000   -0.000000
    1.057826   12.483116   12.483116    0.141358    0.000000   -0.000000   -0.000000
    1.095605   12.714883   12.714883    0.169528    0.000000   -0.000000   -0.000000
    1.133385   13.053199   13.053199    0.206764    0.000000   -0.000000   -0.000000
    1.171164   13.544637   13.544637    0.257104   -0.000000   -0.000000   -0.000000
    1.208944   14.182480   14.182480    0.321184   -0.000000   -0.000000   -0.000000
    1.246723   14.761561   14.761561    0.386068   -0.000000   -0.000000   -0.000000
    1.284503   15.016255   15.016255    0.433124   -0.000000   -0.000000   -0.000000
    1.322282   15.003436   15.003436    0.463044   -0.000000   -0.000000   -0.000000
    1.360062   14.895945   14.895945    0.483369   -0.000000   -0.000000   -0.000000
    1.397841   14.773773   14.773773    0.496419    0.000000   -0.000000   -0.000000
    1.435621   14.648968   14.648968    0.503067    0.000000   -0.000000   -0.000000
    1.473400   14.516915   14.516915    0.505097    0.000000   -0.000000   -0.000000
    1.511180   14.382827   14.382827    0.504723    0.000000   -0.000000   -0.000000
    1.548959   14.252850   14.252850    0.503121    0.000000   -0.000000   -0.000000
    1.586739   14.129055   14.129055    0.500446    0.000000   -0.000000   -0.000000
    1.624518   14.012792   14.012792    0.496543    0.000000   -0.000000   -0.000000
    1.662298   13.905695   13.905695    0.491304    0.000000   -0.000000    0.000000
    1.700077   13.807544   13.807544    0.484954    0.000000   -0.000000    0.000000
    1.737857   13.715156   13.715156    0.478128    0.000000   -0.000000    0.000000
    1.775636   13.625774   13.625774    0.471461   -0.000000   -0.000000    0.000000
    1.813416   13.539299   13.539299    0.465445   -0.000000   -0.000000    0.000000
    1.851195   13.457639   13.457639    0.460532   -0.000000   -0.000000   -0.000000
    1.888975   13.383577   13.383577    0.457156    0.000000   -0.000000   -0.000000
    1.926754   13.320355   13.320355    0.455658    0.000000   -0.000000   -0.000000
    1.964534   13.271479   13.271479    0.456146    0.000000   -0.000000   -0.000000
    2.002313   13.240370   13.240370    0.458452    0.000000   -0.000000   -0.000000
    2.040093   13.228403   13.228403    0.462279    0.000000   -0.000000   -0.000000
    2.077872   13.227711   13.227711    0.467345    0.000000    0.000000   -0.000000
    2.115652   13.218014   13.218014    0.473437    0.000000    0.000000    0.000000
    2.153431   13.177425   13.177425    0.480400    0.000000    0.000000    0.000000
    2.191211   13.090433   13.090433    0.488105    0.000000    0.000000   -0.000000
    2.228990   12.957962   12.957962    0.496432    0.000000    0.000000   -0.000000
[...]
   37.212804    0.000928    0.000928    0.000899    0.000000    0.000000   -0.000000
   37.250583    0.000925    0.000925    0.000896    0.000000    0.000000   -0.000000
   37.288363    0.000922    0.000922    0.000893    0.000000    0.000000   -0.000000
   37.326142    0.000919    0.000919    0.000889    0.000000    0.000000   -0.000000
   37.363922    0.000916    0.000916    0.000886    0.000000    0.000000   -0.000000
   37.401701    0.000912    0.000912    0.000883    0.000000    0.000000   -0.000000
   37.439481    0.000909    0.000909    0.000880    0.000000    0.000000   -0.000000
   37.477260    0.000906    0.000906    0.000877    0.000000    0.000000   -0.000000
   37.515040    0.000903    0.000903    0.000873    0.000000    0.000000   -0.000000
   37.552819    0.000900    0.000900    0.000870    0.000000    0.000000   -0.000000
   37.590599    0.000897    0.000897    0.000867    0.000000    0.000000   -0.000000
   37.628378    0.000894    0.000894    0.000864    0.000000    0.000000   -0.000000
   37.666158    0.000891    0.000891    0.000861    0.000000    0.000000   -0.000000
   37.703937    0.000888    0.000888    0.000858    0.000000    0.000000   -0.000000
   37.741717    0.000885    0.000885    0.000855    0.000000    0.000000   -0.000000

  frequency dependent      REAL DIELECTRIC FUNCTION (independent particle, no local field effects)
     E(ev)      X         Y         Z        XY        YZ        ZX
    0.000000   21.037071   21.037071    2.751215   -0.000000   -0.000000   -0.000000
    0.037779   21.058285   21.058285    2.751410   -0.000000   -0.000000   -0.000000
    0.075559   21.122436   21.122436    2.751996   -0.000000   -0.000000   -0.000000
    0.113338   21.231101   21.231101    2.752976   -0.000000   -0.000000   -0.000000
    0.151118   21.387043   21.387043    2.754356   -0.000000   -0.000000   -0.000000
    0.188897   21.594286   21.594286    2.756146   -0.000000   -0.000000   -0.000000
    0.226677   21.858422   21.858422    2.758356   -0.000000   -0.000000   -0.000000
    0.264456   22.186762   22.186762    2.761001   -0.000000   -0.000000   -0.000000
    0.302236   22.588517   22.588517    2.764098   -0.000000   -0.000000   -0.000000
    0.340015   23.074178   23.074178    2.767670   -0.000000   -0.000000   -0.000000
    0.377795   23.653035   23.653035    2.771742   -0.000000   -0.000000   -0.000000
    0.415574   24.324404   24.324404    2.776346   -0.000000   -0.000000   -0.000000
    0.453354   25.050358   25.050358    2.781518   -0.000000   -0.000000   -0.000000
    0.491133   25.683915   25.683915    2.787305   -0.000000   -0.000000   -0.000000
    0.528913   25.856727   25.856727    2.793757   -0.000000   -0.000000   -0.000000
    0.566692   25.120107   25.120107    2.800937   -0.000000   -0.000000   -0.000000
    0.604472   23.643592   23.643592    2.808919   -0.000000   -0.000000   -0.000000
    0.642251   22.192245   22.192245    2.817790   -0.000000   -0.000000   -0.000000
    0.680031   21.152858   21.152858    2.827656    0.000000   -0.000000   -0.000000
    0.717810   20.393649   20.393649    2.838639    0.000000   -0.000000   -0.000000
    0.755590   19.737168   19.737168    2.850876    0.000000   -0.000000   -0.000000
    0.793369   19.103670   19.103670    2.864485    0.000000   -0.000000   -0.000000
    0.831149   18.479730   18.479730    2.879484    0.000000   -0.000000   -0.000000
    0.868928   17.899953   17.899953    2.895627    0.000000   -0.000000   -0.000000
    0.906708   17.424756   17.424756    2.912428    0.000000   -0.000000   -0.000000
    0.944487   17.068566   17.068566    2.929751    0.000000   -0.000000   -0.000000
    0.982267   16.791826   16.791826    2.947997    0.000000   -0.000000   -0.000000
    1.020046   16.562607   16.562607    2.967629    0.000000   -0.000000   -0.000000
    1.057826   16.368944   16.368944    2.988961    0.000000   -0.000000   -0.000000
    1.095605   16.204608   16.204608    3.011922    0.000000   -0.000000   -0.000000
    1.133385   16.050772   16.050772    3.035268   -0.000000   -0.000000   -0.000000
    1.171164   15.843792   15.843792    3.054481    0.000000   -0.000000   -0.000000
    1.208944   15.435357   15.435357    3.058786    0.000000   -0.000000   -0.000000
    1.246723   14.689095   14.689095    3.037091    0.000000   -0.000000   -0.000000
    1.284503   13.772794   13.772794    2.997696    0.000000   -0.000000    0.000000
    1.322282   12.961773   12.961773    2.957032    0.000000   -0.000000    0.000000
    1.360062   12.305709   12.305709    2.918794    0.000000   -0.000000    0.000000
    1.397841   11.752684   11.752684    2.882593    0.000000   -0.000000    0.000000
    1.435621   11.258853   11.258852    2.849454    0.000000   -0.000000    0.000000
    1.473400   10.811222   10.811222    2.820589    0.000000   -0.000000    0.000000
    1.511180   10.406894   10.406894    2.795922    0.000000   -0.000000    0.000000
    1.548959   10.038362   10.038362    2.774369    0.000000    0.000000    0.000000
    1.586739    9.698724    9.698724    2.755113    0.000000    0.000000    0.000000
    1.624518    9.383241    9.383241    2.737878    0.000000    0.000000    0.000000
    1.662298    9.087094    9.087094    2.722829    0.000000    0.000000    0.000000
    1.700077    8.804529    8.804529    2.710401    0.000000    0.000000    0.000000
    1.737857    8.531820    8.531820    2.700850    0.000000    0.000000    0.000000
    1.775636    8.268980    8.268980    2.694070    0.000000    0.000000    0.000000
    1.813416    8.017308    8.017308    2.689853    0.000000    0.000000   -0.000000
    1.851195    7.777329    7.777329    2.687938    0.000000    0.000000   -0.000000
    1.888975    7.548265    7.548265    2.687958    0.000000    0.000000   -0.000000
    1.926754    7.327977    7.327977    2.689388    0.000000    0.000000   -0.000000
    1.964534    7.112591    7.112591    2.691585    0.000000    0.000000   -0.000000
    2.002313    6.895558    6.895557    2.693991    0.000000    0.000000   -0.000000
    2.040093    6.665418    6.665418    2.696253    0.000000    0.000000    0.000000
    2.077872    6.406494    6.406494    2.698199   -0.000000    0.000000    0.000000
    2.115652    6.110586    6.110586    2.699745   -0.000000    0.000000    0.000000
    2.153431    5.784007    5.784007    2.700841   -0.000000    0.000000   -0.000000
    2.191211    5.445189    5.445189    2.701433   -0.000000   -0.000000   -0.000000
    2.228990    5.120170    5.120170    2.701479   -0.000000   -0.000000   -0.000000
[...]
   37.212804    0.841591    0.841591    0.853323   -0.000000   -0.000000    0.000000
   37.250583    0.841941    0.841941    0.853662   -0.000000   -0.000000    0.000000
   37.288363    0.842290    0.842290    0.854000   -0.000000   -0.000000    0.000000
   37.326142    0.842638    0.842638    0.854337   -0.000000   -0.000000    0.000000
   37.363922    0.842984    0.842984    0.854672   -0.000000   -0.000000    0.000000
   37.401701    0.843329    0.843329    0.855006   -0.000000   -0.000000    0.000000
   37.439481    0.843674    0.843674    0.855339   -0.000000   -0.000000    0.000000
   37.477260    0.844017    0.844017    0.855671   -0.000000   -0.000000    0.000000
   37.515040    0.844358    0.844358    0.856002   -0.000000   -0.000000    0.000000
   37.552819    0.844699    0.844699    0.856331   -0.000000   -0.000000    0.000000
   37.590599    0.845038    0.845038    0.856659   -0.000000   -0.000000    0.000000
   37.628378    0.845377    0.845377    0.856986   -0.000000   -0.000000    0.000000
   37.666158    0.845714    0.845714    0.857312   -0.000000   -0.000000    0.000000
   37.703937    0.846050    0.846050    0.857637   -0.000000   -0.000000    0.000000
   37.741717    0.846384    0.846384    0.857960   -0.000000   -0.000000    0.000000

 The outermost node in the dielectric function lies at epsilon=  18.2

volume of typ            1:    30.9 %

total charge

# of ion     s       p       d       tot
  1        0.873   1.911   0.073   2.857
  2        0.872   1.916   0.072   2.859
  3        0.872   1.916   0.072   2.859
  4        0.873   1.911   0.073   2.857
tot         3.49    7.65    0.29   11.43

orbital moment (x)

[...]

orbital moment (y)

[...]

orbital moment (z)

# of ion   s             p             d             tot
   1     0.000000E+00 -0.866487E-01 -0.226657E-01 -0.109314E+00
   2     0.000000E+00  0.866744E-01  0.229165E-01  0.109591E+00
   3     0.000000E+00 -0.866744E-01 -0.229165E-01 -0.109591E+00
   4     0.000000E+00  0.866491E-01  0.226658E-01  0.109315E+00
tot      0.000000E+00  0.425926E-06  0.563791E-07  0.482305E-06

 BZINTS: Fermi energy:  4.515418; 16.000000 electrons
         Band energy: -70.587829;  BLOECHL correction:  0.000000