 vasp.5.4.4.18Apr17-6-g9f103f2a35 (build May 20 2018 16:52:39) complex

 executed on             LinuxIFC date 2022.11.17  22:01:43

 INCAR:
 POTCAR:    PAW Nb_pv 09Jan2002

 POTCAR:    PAW Nb_pv 09Jan2002
   VRHFIN =Nb: s1d4

   TITEL  = PAW Nb_pv 09Jan2002
   POMASS =   92.910; ZVAL   =   11.000    mass and valenz
   ENMAX  =  207.263; ENMIN  =  155.447 eV

  PAW Nb_pv 09Jan2002                   :

 POSCAR: sic16 Nb
  positions in direct lattice
 exchange correlation table for  LEXCH =        2
   RHO(1)=    0.500       N(1)  =     2000
   RHO(2)=  100.500       N(2)  =     4000

 ion  position               nearest neighbor table
   1  0.000  0.000  0.000-   2 2.86   4 2.86   6 2.86   8 2.86  10 2.86  12 2.86  14 2.86  16 2.86
                             7 3.30   5 3.30   3 3.30   7 3.30   5 3.30   3 3.30
   2  0.250  0.250  0.250-   1 2.86   3 2.86   5 2.86   7 2.86   9 2.86  11 2.86  13 2.86  15 2.86
                             4 3.30   8 3.30   6 3.30   8 3.30   6 3.30   4 3.30
   3  0.500  0.000  0.000-   2 2.86   4 2.86   6 2.86   8 2.86  10 2.86  12 2.86  14 2.86  16 2.86
                            13 3.30   1 3.30   9 3.30  13 3.30   9 3.30   1 3.30
   4  0.750  0.250  0.250-   1 2.86   3 2.86   5 2.86   7 2.86   9 2.86  11 2.86  13 2.86  15 2.86
                            10 3.30  14 3.30   2 3.30  14 3.30  10 3.30   2 3.30
   5  0.000  0.500  0.000-   2 2.86   4 2.86   6 2.86   8 2.86  10 2.86  12 2.86  14 2.86  16 2.86
                             9 3.30   1 3.30  11 3.30  11 3.30   1 3.30   9 3.30
   6  0.250  0.750  0.250-   1 2.86   3 2.86   5 2.86   7 2.86   9 2.86  11 2.86  13 2.86  15 2.86
                            12 3.30  10 3.30   2 3.30  12 3.30   2 3.30  10 3.30
   7  0.000  0.000  0.500-   2 2.86   4 2.86   6 2.86   8 2.86  10 2.86  12 2.86  14 2.86  16 2.86
                            13 3.30  11 3.30   1 3.30   1 3.30  11 3.30  13 3.30
   8  0.250  0.250  0.750-   1 2.86   3 2.86   5 2.86   7 2.86   9 2.86  11 2.86  13 2.86  15 2.86
                             2 3.30  14 3.30  12 3.30   2 3.30  12 3.30  14 3.30
   9  0.500  0.500  0.000-   2 2.86   4 2.86   6 2.86   8 2.86  10 2.86  12 2.86  14 2.86  16 2.86
                             3 3.30  15 3.30   5 3.30  15 3.30   3 3.30   5 3.30
  10  0.750  0.750  0.250-   1 2.86   3 2.86   5 2.86   7 2.86   9 2.86  11 2.86  13 2.86  15 2.86
                             6 3.30   4 3.30  16 3.30  16 3.30   4 3.30   6 3.30
  11  0.000  0.500  0.500-   2 2.86   4 2.86   6 2.86   8 2.86  10 2.86  12 2.86  14 2.86  16 2.86
                             7 3.30  15 3.30   5 3.30   5 3.30   7 3.30  15 3.30
  12  0.250  0.750  0.750-   1 2.86   3 2.86   5 2.86   7 2.86   9 2.86  11 2.86  13 2.86  15 2.86
                             6 3.30   8 3.30  16 3.30   6 3.30   8 3.30  16 3.30
  13  0.500  0.000  0.500-   2 2.86   4 2.86   6 2.86   8 2.86  10 2.86  12 2.86  14 2.86  16 2.86
                             7 3.30  15 3.30   3 3.30   3 3.30  15 3.30   7 3.30
  14  0.750  0.250  0.750-   1 2.86   3 2.86   5 2.86   7 2.86   9 2.86  11 2.86  13 2.86  15 2.86
                             4 3.30   8 3.30  16 3.30   4 3.30  16 3.30   8 3.30
  15  0.500  0.500  0.500-   2 2.86   4 2.86   6 2.86   8 2.86  10 2.86  12 2.86  14 2.86  16 2.86
                            13 3.30  11 3.30   9 3.30   9 3.30  13 3.30  11 3.30
  16  0.750  0.750  0.750-   1 2.86   3 2.86   5 2.86   7 2.86   9 2.86  11 2.86  13 2.86  15 2.86
                            10 3.30  14 3.30  12 3.30  10 3.30  14 3.30  12 3.30

  LATTYP: Found a simple cubic cell.
 ALAT       =     6.6016000000

  Lattice vectors:

 A1 = (   6.6016000000,   0.0000000000,   0.0000000000)
 A2 = (   0.0000000000,   6.6016000000,   0.0000000000)
 A3 = (   0.0000000000,   0.0000000000,   6.6016000000)

Analysis of symmetry for initial positions (statically):
 Subroutine PRICEL returns following result:

  LATTYP: Found a body centered cubic cell.
 ALAT       =     3.3008000000

[...]

  16 primitive cells build up your supercell.

 Routine SETGRP: Setting up the symmetry group for a
 simple cubic supercell.

 Subroutine GETGRP returns: Found 48 space group operations
 (whereof 48 operations were pure point group operations)
 out of a pool of 48 trial point group operations.

The static configuration has the point symmetry O_h .

Analysis of symmetry for dynamics (positions and initial velocities):
 Subroutine PRICEL returns following result:

  LATTYP: Found a body centered cubic cell.
 ALAT       =     3.3008000000

  Lattice vectors:

 A1 = (   1.6504000000,   1.6504000000,   1.6504000000)
 A2 = (   1.6504000000,  -1.6504000000,  -1.6504000000)
 A3 = (  -1.6504000000,   1.6504000000,  -1.6504000000)

  16 primitive cells build up your supercell.

 Routine SETGRP: Setting up the symmetry group for a
 simple cubic supercell.

 Subroutine GETGRP returns: Found 48 space group operations
 (whereof 48 operations were pure point group operations)
 out of a pool of 48 trial point group operations.

The dynamic configuration has the point symmetry O_h .

 Subroutine INISYM returns: Found 48 space group operations
 (whereof 48 operations are pure point group operations),
 and found    16 'primitive' translations

 KPOINTS: 20*20*20

Automatic generation of k-mesh.
Space group operators:
 irot       det(A)        alpha          n_x          n_y          n_z        tau_x        tau_y        tau_z
    1     1.000000     0.000000     1.000000     0.000000     0.000000     0.000000     0.000000     0.000000
    2    -1.000000     0.000000     1.000000     0.000000     0.000000     0.000000     0.000000     0.000000
    3     1.000000   120.000000    -0.577350    -0.577350    -0.577350     0.000000     0.000000     0.000000
    4    -1.000000   120.000000    -0.577350    -0.577350    -0.577350     0.000000     0.000000     0.000000
    5     1.000000   120.000000     0.577350     0.577350     0.577350     0.000000     0.000000     0.000000
    6    -1.000000   120.000000     0.577350     0.577350     0.577350     0.000000     0.000000     0.000000
    7     1.000000    90.000000     0.000000     0.000000    -1.000000     0.000000     0.000000     0.000000
    8    -1.000000    90.000000     0.000000     0.000000    -1.000000     0.000000     0.000000     0.000000
    9     1.000000   180.000000     0.000000     0.707107     0.707107     0.000000     0.000000     0.000000
   10    -1.000000   180.000000     0.000000     0.707107     0.707107     0.000000     0.000000     0.000000
   11     1.000000    90.000000     0.000000     1.000000     0.000000     0.000000     0.000000     0.000000
   12    -1.000000    90.000000     0.000000     1.000000     0.000000     0.000000     0.000000     0.000000
   13     1.000000   180.000000     0.000000     0.000000     1.000000     0.000000     0.000000     0.000000
   14    -1.000000   180.000000     0.000000     0.000000     1.000000     0.000000     0.000000     0.000000
   15     1.000000   120.000000    -0.577350     0.577350     0.577350     0.000000     0.000000     0.000000
   16    -1.000000   120.000000    -0.577350     0.577350     0.577350     0.000000     0.000000     0.000000
   17     1.000000   120.000000    -0.577350     0.577350    -0.577350     0.000000     0.000000     0.000000
   18    -1.000000   120.000000    -0.577350     0.577350    -0.577350     0.000000     0.000000     0.000000
   19     1.000000    90.000000     0.000000     0.000000     1.000000     0.000000     0.000000     0.000000
   20    -1.000000    90.000000     0.000000     0.000000     1.000000     0.000000     0.000000     0.000000
   21     1.000000    90.000000    -1.000000     0.000000     0.000000     0.000000     0.000000     0.000000
   22    -1.000000    90.000000    -1.000000     0.000000     0.000000     0.000000     0.000000     0.000000
   23     1.000000   180.000000     0.707107     0.000000     0.707107     0.000000     0.000000     0.000000
   24    -1.000000   180.000000     0.707107     0.000000     0.707107     0.000000     0.000000     0.000000
   25     1.000000   120.000000     0.577350    -0.577350     0.577350     0.000000     0.000000     0.000000
   26    -1.000000   120.000000     0.577350    -0.577350     0.577350     0.000000     0.000000     0.000000
   27     1.000000   120.000000    -0.577350    -0.577350     0.577350     0.000000     0.000000     0.000000
   28    -1.000000   120.000000    -0.577350    -0.577350     0.577350     0.000000     0.000000     0.000000
   29     1.000000   180.000000     1.000000     0.000000     0.000000     0.000000     0.000000     0.000000
   30    -1.000000   180.000000     1.000000     0.000000     0.000000     0.000000     0.000000     0.000000
   31     1.000000    90.000000     0.000000    -1.000000     0.000000     0.000000     0.000000     0.000000
   32    -1.000000    90.000000     0.000000    -1.000000     0.000000     0.000000     0.000000     0.000000
   33     1.000000   180.000000     0.707107     0.707107     0.000000     0.000000     0.000000     0.000000
   34    -1.000000   180.000000     0.707107     0.707107     0.000000     0.000000     0.000000     0.000000
   35     1.000000    90.000000     1.000000     0.000000     0.000000     0.000000     0.000000     0.000000
   36    -1.000000    90.000000     1.000000     0.000000     0.000000     0.000000     0.000000     0.000000
   37     1.000000   120.000000     0.577350    -0.577350    -0.577350     0.000000     0.000000     0.000000
   38    -1.000000   120.000000     0.577350    -0.577350    -0.577350     0.000000     0.000000     0.000000
   39     1.000000   180.000000     0.000000     1.000000     0.000000     0.000000     0.000000     0.000000
   40    -1.000000   180.000000     0.000000     1.000000     0.000000     0.000000     0.000000     0.000000
   41     1.000000   120.000000     0.577350     0.577350    -0.577350     0.000000     0.000000     0.000000
   42    -1.000000   120.000000     0.577350     0.577350    -0.577350     0.000000     0.000000     0.000000
   43     1.000000   180.000000     0.000000    -0.707107     0.707107     0.000000     0.000000     0.000000
   44    -1.000000   180.000000     0.000000    -0.707107     0.707107     0.000000     0.000000     0.000000
   45     1.000000   180.000000     0.707107    -0.707107     0.000000     0.000000     0.000000     0.000000
   46    -1.000000   180.000000     0.707107    -0.707107     0.000000     0.000000     0.000000     0.000000
   47     1.000000   180.000000     0.707107     0.000000    -0.707107     0.000000     0.000000     0.000000
   48    -1.000000   180.000000     0.707107     0.000000    -0.707107     0.000000     0.000000     0.000000

 Subroutine IBZKPT returns following result:

 Found    220 irreducible k-points:

 Following reciprocal coordinates:
            Coordinates               Weight
  0.025000  0.025000  0.025000      8.000000
  0.075000  0.025000  0.025000     24.000000
  0.125000  0.025000  0.025000     24.000000
  0.175000  0.025000  0.025000     24.000000
  0.225000  0.025000  0.025000     24.000000
  0.275000  0.025000  0.025000     24.000000
  0.325000  0.025000  0.025000     24.000000
[...]
 k-point ** :   0.1750 0.1750 0.1750  plane waves:    3404
 k-point ** :   0.2250 0.1750 0.1750  plane waves:    3397
 k-point ** :   0.2750 0.1750 0.1750  plane waves:    3397
 k-point ** :   0.3250 0.1750 0.1750  plane waves:    3400
 k-point ** :   0.3750 0.1750 0.1750  plane waves:    3398
 k-point ** :   0.4250 0.1750 0.1750  plane waves:    3394
 k-point ** :   0.4750 0.1750 0.1750  plane waves:    3400
 k-point ** :   0.2250 0.2250 0.1750  plane waves:    3396
 k-point ** :   0.2750 0.2250 0.1750  plane waves:    3397
 k-point ** :   0.3250 0.2250 0.1750  plane waves:    3396
 k-point ** :   0.3750 0.2250 0.1750  plane waves:    3399
 k-point ** :   0.4250 0.2250 0.1750  plane waves:    3396
 k-point ** :   0.4750 0.2250 0.1750  plane waves:    3393
 k-point ** :   0.2750 0.2750 0.1750  plane waves:    3394
 k-point ** :   0.3250 0.2750 0.1750  plane waves:    3395
 k-point ** :   0.3750 0.2750 0.1750  plane waves:    3400
 k-point ** :   0.4250 0.2750 0.1750  plane waves:    3399
 k-point ** :   0.4750 0.2750 0.1750  plane waves:    3393
 k-point ** :   0.3250 0.3250 0.1750  plane waves:    3387
 k-point ** :   0.3750 0.3250 0.1750  plane waves:    3393
 k-point ** :   0.4250 0.3250 0.1750  plane waves:    3398
 k-point ** :   0.4750 0.3250 0.1750  plane waves:    3392
 k-point ** :   0.3750 0.3750 0.1750  plane waves:    3388
[...]
 k-point ** :   0.4250 0.3750 0.3250  plane waves:    3382
 k-point ** :   0.4750 0.3750 0.3250  plane waves:    3389
 k-point ** :   0.4250 0.4250 0.3250  plane waves:    3384
 k-point ** :   0.4750 0.4250 0.3250  plane waves:    3388
 k-point ** :   0.4750 0.4750 0.3250  plane waves:    3391
 k-point ** :   0.3750 0.3750 0.3750  plane waves:    3389
 k-point ** :   0.4250 0.3750 0.3750  plane waves:    3385
 k-point ** :   0.4750 0.3750 0.3750  plane waves:    3388
 k-point ** :   0.4250 0.4250 0.3750  plane waves:    3387
 k-point ** :   0.4750 0.4250 0.3750  plane waves:    3389
 k-point ** :   0.4750 0.4750 0.3750  plane waves:    3395
 k-point ** :   0.4250 0.4250 0.4250  plane waves:    3394
 k-point ** :   0.4750 0.4250 0.4250  plane waves:    3400
 k-point ** :   0.4750 0.4750 0.4250  plane waves:    3394
 k-point ** :   0.4750 0.4750 0.4750  plane waves:    3406

 maximum and minimum number of plane-waves per node :      3415     3375

 maximum number of plane-waves:      3415
 maximum index in each direction:
   IXMAX=    9   IYMAX=    9   IZMAX=    9
   IXMIN=   -9   IYMIN=   -9   IZMIN=   -9

 serial   3D FFT for wavefunctions
 parallel 3D FFT for charge:
    minimum data exchange during FFTs selected (reduces bandwidth)

 initial charge density was supplied:
 number of electron     176.0000833 magnetization
 keeping initial charge density in first step

 Maximum index for augmentation-charges          341 (set IRDMAX)

 First call to EWALD:  gamma=   0.268
 Maximum number of real-space cells 3x 3x 3
 Maximum number of reciprocal cells 3x 3x 3

--------------------------------------- Iteration      1(   1)  ---------------------------------------

 eigenvalue-minimisations  : 58160
 total energy-change (2. order) : 0.1327305E+04  (-0.7069422E+04)
 number of electron     176.0000833 magnetization
 augmentation part      176.0000833 magnetization

 Free energy of the ion-electron system (eV)
  alpha Z        PSCENC =      1996.84190797
  Ewald energy   TEWEN  =    -15368.17067784
  -Hartree energ DENC   =     -1921.96135604
  -exchange      EXHF   =         0.00000000
  -V(xc)+E(xc)   XCENC  =       422.98923618
  PAW double counting   =     23984.74616033   -23851.67721824
  entropy T*S    EENTRO =        -0.15042133
  eigenvalues    EBANDS =      -677.12254571
  atomic energy  EATOM  =     16741.81022793
  Solvation  Ediel_sol  =         0.00000000
  free energy    TOTEN  =      1327.30531326 eV

  energy without entropy =     1327.45573459  energy(sigma->0) =     1327.38052392

[...]

 eigenvalue-minimisations  : 53240
 total energy-change (2. order) :-0.1432637E+04  (-0.1404854E+04)
 number of electron     176.0000833 magnetization
 augmentation part      176.0000833 magnetization

[...]

--------------------------------------- Iteration      1(   9)  ---------------------------------------

 eigenvalue-minimisations  : 57880
 total energy-change (2. order) :-0.1181979E-07  (-0.1168498E-07)
 number of electron     176.0000833 magnetization
 augmentation part      176.0000833 magnetization

 Free energy of the ion-electron system (eV)
  alpha Z        PSCENC =      1996.84190797
  Ewald energy   TEWEN  =    -15368.17067784
  -Hartree energ DENC   =     -1921.96135604
  -exchange      EXHF   =         0.00000000
  -V(xc)+E(xc)   XCENC  =       422.98923618
  PAW double counting   =     23984.74616033   -23851.67721824
  entropy T*S    EENTRO =        -0.48514979
  eigenvalues    EBANDS =     -2182.52410233
  atomic energy  EATOM  =     16741.81022793
  Solvation  Ediel_sol  =         0.00000000
  free energy    TOTEN  =      -178.43097182 eV

  energy without entropy =     -177.94582203  energy(sigma->0) =     -178.18839693

 average (electrostatic) potential at core
  the test charge radii are     1.2165
  (the norm of the test charge is              1.0000)
       1 -34.9059       2 -34.9059       3 -34.9059       4 -34.9059       5 -34.9059
       6 -34.9059       7 -34.9059       8 -34.9059       9 -34.9059      10 -34.9059
      11 -34.9059      12 -34.9059      13 -34.9059      14 -34.9059      15 -34.9059
      16 -34.9059

 E-fermi :   4.8538     XC(G=0): -12.6479     alpha+bet :-12.9149

 k-point     1 :       0.0250    0.0250    0.0250
  band No.  band energies     occupation
      1     -26.0732      2.00000
      2     -26.0732      2.00000
      3     -26.0732      2.00000
      4     -26.0719      2.00000
      5     -26.0719      2.00000
      6     -26.0719      2.00000
      7     -25.6381      2.00000
      8     -25.6381      2.00000
      9     -25.6351      2.00000
     10     -25.4657      2.00000
     11     -25.4657      2.00000
     12     -25.4657      2.00000
     13     -25.4476      2.00000
     14     -25.4297      2.00000
     15     -25.4297      2.00000
     16     -25.4297      2.00000
     17     -25.4210      2.00000
     18     -25.4210      2.00000
     19     -25.3671      2.00000
     20     -25.3671      2.00000
     21     -25.3402      2.00000
     22     -25.1754      2.00000
     23     -25.1754      2.00000
     24     -25.1754      2.00000
     25     -25.1702      2.00000
     26     -25.1702      2.00000
     27     -25.1702      2.00000
     28     -25.1382      2.00000
     29     -25.1382      2.00000
     30     -25.1382      2.00000
     31     -25.1331      2.00000
     32     -25.1331      2.00000
     33     -25.1331      2.00000
     34     -25.1291      2.00000
     35     -25.1291      2.00000
     36     -25.1291      2.00000
     37     -25.1277      2.00000
     38     -25.1277      2.00000
     39     -25.1277      2.00000
     40     -24.7069      2.00000
     41     -24.7069      2.00000
     42     -24.7069      2.00000
     43     -24.7053      2.00000
     44     -24.7053      2.00000
     45     -24.7053      2.00000
     46     -24.6953      2.00000
     47     -24.6919      2.00000
     48     -24.6919      2.00000
     49      -1.0783      2.00000
     50       1.0892      2.00000
     51       1.0892      2.00000
     52       1.0961      2.00000
     53       1.0961      2.00000
     54       1.0961      2.00000
     55       1.0994      2.00000
     56       1.0994      2.00000
     57       1.0994      2.00000
     58       2.2778      2.00000
     59       2.2778      2.00000
     60       2.2778      2.00000
[...]
    106       7.5110      0.00000
    107       7.5110      0.00000
    108       7.5110      0.00000
    109       8.0737      0.00000
    110       8.0737      0.00000
    111       8.0977      0.00000
    112       8.0977      0.00000
    113       8.0977      0.00000
    114       8.1150      0.00000
    115       8.1150      0.00000
    116       8.1150      0.00000
    117       8.7918      0.00000
    118       8.8125      0.00000
    119       8.8384      0.00000
    120       8.8569      0.00000

[...]

 k-point   220 :       0.4750    0.4750    0.4750
  band No.  band energies     occupation
      1     -25.7203      2.00000
      2     -25.7203      2.00000
      3     -25.7203      2.00000
      4     -25.7192      2.00000
      5     -25.7192      2.00000
      6     -25.7192      2.00000
      7     -25.6900      2.00000
      8     -25.6900      2.00000
      9     -25.6874      2.00000
     10     -25.6874      2.00000
     11     -25.6580      2.00000
     12     -25.6580      2.00000
     13     -25.6580      2.00000
     14     -25.6553      2.00000
     15     -25.6553      2.00000
     16     -25.6553      2.00000
     17     -25.6507      2.00000
     18     -25.6238      2.00000
     19     -25.6238      2.00000
     20     -25.6238      2.00000
     21     -25.5935      2.00000
     22     -25.5935      2.00000
     23     -25.5935      2.00000
     24     -25.5604      2.00000
     25     -24.9898      2.00000
     26     -24.9666      2.00000
     27     -24.9666      2.00000
     28     -24.9666      2.00000
     29     -24.9454      2.00000
     30     -24.9454      2.00000
     31     -24.9454      2.00000
     32     -24.9265      2.00000
     33     -24.8926      2.00000
     34     -24.8926      2.00000
     35     -24.8926      2.00000
     36     -24.8860      2.00000
     37     -24.8860      2.00000
     38     -24.8791      2.00000
     39     -24.8791      2.00000
     40     -24.8791      2.00000
     41     -24.8535      2.00000
     42     -24.8535      2.00000
     43     -24.8535      2.00000
     44     -24.8476      2.00000
     45     -24.8476      2.00000
     46     -24.8417      2.00000
     47     -24.8417      2.00000
     48     -24.8417      2.00000
     49       1.6459      2.00000
     50       1.7888      2.00000
     51       1.7888      2.00000
     52       1.7888      2.00000
     53       1.9326      2.00000
     54       1.9326      2.00000
     55       1.9326      2.00000
     56       2.0866      2.00000
     57       3.0961      2.00000
     58       3.0961      2.00000
     59       3.1361      2.00000
     60       3.1361      2.00000
[...]
    106       8.1957      0.00000
    107       8.1973      0.00000
    108       8.1973      0.00000
    109       8.1973      0.00000
    110       8.2227      0.00000
    111       8.2227      0.00000
    112       8.2227      0.00000
    113       8.4769      0.00000
    114       8.4769      0.00000
    115       8.4770      0.00000
    116       8.5140      0.00000
    117       8.5140      0.00000
    118       8.5140      0.00000
    119       8.6205      0.00000
    120       8.6211      0.00000

 soft charge-density along one line, spin component           1
         0         1         2         3         4         5         6         7         8         9
 total charge-density along one line

------------------------ aborting loop because EDIFF is reached ----------------------------------------

  FORCE on cell =-STRESS in cart. coord.  units (eV):
  Direction    XX          YY          ZZ          XY          YZ          ZX
  Alpha Z  1996.84191  1996.84191  1996.84191
  Ewald   -5122.73989 -5122.73989 -5122.73989     0.00000     0.00000     0.00000
  Hartree   640.91020   640.91020   640.91020    -0.00000    -0.00000    -0.00000
  E(xc)    -750.15787  -750.15787  -750.15787     0.00000     0.00000     0.00000
  Local    1644.66962  1644.66962  1644.66962     0.00000    -0.00000     0.00000
  n-local  -665.12256  -671.82243  -674.31562    -4.17117    -2.51073    -2.31725
  augment   418.84692   418.84692   418.84692     0.00000     0.00000     0.00000
  Kinetic  1845.03447  1828.82527  1817.67241   -10.17904    -3.95056    -5.26826
  Fock        0.00000     0.00000     0.00000     0.00000     0.00000     0.00000
  Total     -11.53859   -11.53859   -11.53859    -0.00000    -0.00000     0.00000
  in kB     -64.25629   -64.25629   -64.25629    -0.00000    -0.00000     0.00000

 VOLUME and BASIS-vectors are now :
  energy-cutoff  :      300.00
  volume of cell :      287.71
      direct lattice vectors                 reciprocal lattice vectors
     6.601600000  0.000000000  0.000000000     0.151478429  0.000000000  0.000000000
     0.000000000  6.601600000  0.000000000     0.000000000  0.151478429  0.000000000
     0.000000000  0.000000000  6.601600000     0.000000000  0.000000000  0.151478429

  length of vectors
     6.601600000  6.601600000  6.601600000     0.151478429  0.151478429  0.151478429

 FORCES acting on ions
    electron-ion (+dipol)            ewald-force                    non-local-force                 convergence-correction
   -.511E-13 -.334E-13 -.242E-13   0.128E-12 0.426E-13 0.711E-13   0.171E-23 -.178E-23 0.246E-24   0.929E-14 0.202E-13 0.247E-13
   0.760E-13 0.102E-12 0.115E-12   0.128E-12 0.840E-13 0.843E-13   0.931E-24 0.274E-23 -.163E-23   0.391E-13 -.298E-13 -.376E-13
   0.252E-12 -.275E-13 -.148E-13   0.426E-13 0.284E-13 0.426E-13   -.129E-23 0.300E-23 0.145E-23   -.799E-13 0.202E-13 0.188E-13
   0.431E-12 -.585E-12 -.571E-12   0.428E-13 0.422E-13 0.698E-13   -.207E-24 0.155E-23 -.801E-24   -.252E-12 -.248E-13 -.376E-13
   -.501E-13 0.228E-12 -.223E-13   0.711E-13 0.000E+00 0.142E-13   -.226E-23 -.620E-24 -.750E-24   0.560E-14 -.844E-13 0.213E-13
   0.779E-13 0.429E-12 0.122E-12   0.663E-13 0.426E-13 -.130E-14   -.672E-24 -.595E-24 -.827E-24   0.407E-13 -.187E-12 -.357E-13
   -.499E-13 -.333E-13 0.217E-12   -.142E-13 -.142E-13 0.142E-13   0.775E-25 0.491E-24 -.207E-23   0.903E-14 0.212E-13 -.764E-13
   0.742E-13 0.107E-12 0.418E-12   -.138E-13 -.235E-14 0.142E-13   -.724E-24 0.207E-24 -.630E-25   0.396E-13 -.259E-13 -.183E-12
   0.250E-12 0.227E-12 -.212E-13   -.142E-13 0.000E+00 0.142E-13   0.352E-23 0.504E-24 0.321E-23   -.760E-13 -.881E-13 0.203E-13
   0.428E-12 0.528E-12 -.127E-11   -.143E-13 0.426E-13 0.180E-13   0.346E-23 0.103E-23 0.114E-23   -.252E-12 -.190E-12 -.383E-13
   -.490E-13 0.227E-12 0.216E-12   -.142E-13 -.426E-13 0.142E-13   -.155E-24 0.892E-24 -.620E-24   0.437E-14 -.836E-13 -.760E-13
   0.763E-13 0.414E-12 0.401E-12   -.117E-13 -.284E-13 0.143E-13   -.610E-24 -.321E-23 -.155E-24   0.415E-13 -.188E-12 -.180E-12
   0.251E-12 -.334E-13 0.214E-12   -.995E-13 0.000E+00 -.568E-13   -.103E-23 0.165E-23 0.109E-23   -.819E-13 0.195E-13 -.797E-13
   0.433E-12 -.128E-11 0.517E-12   -.997E-13 0.147E-13 -.142E-13   0.181E-24 -.200E-23 -.207E-24   -.254E-12 -.223E-13 -.178E-12
   0.248E-12 0.226E-12 0.214E-12   -.128E-12 -.711E-13 -.995E-13   -.982E-24 -.750E-24 -.375E-24   -.772E-13 -.844E-13 -.748E-13
   0.429E-12 0.193E-11 0.192E-11   -.128E-12 -.287E-13 -.285E-13   0.517E-24 -.155E-24 0.478E-24   -.253E-12 -.191E-12 -.181E-12
   0.283E-11 0.242E-11 0.243E-11   -.582E-13 0.110E-12 0.171E-12   0.245E-23 0.297E-23 0.105E-24   -.114E-11 -.112E-11 -.109E-11

 POSITION                                       TOTAL-FORCE (eV/Angst)
      0.00000      0.00000      0.00000         0.000000      0.000000     -0.000000
      1.65040      1.65040      1.65040        -0.000000     -0.000000     -0.000000
      3.30080      0.00000      0.00000        -0.000000      0.000000      0.000000
      4.95120      1.65040      1.65040         0.000000      0.000000     -0.000000
      0.00000      3.30080      0.00000         0.000000     -0.000000      0.000000
      1.65040      4.95120      1.65040         0.000000     -0.000000     -0.000000
      0.00000      0.00000      3.30080        -0.000000     -0.000000      0.000000
      1.65040      1.65040      4.95120        -0.000000      0.000000     -0.000000
      3.30080      3.30080      0.00000        -0.000000      0.000000     -0.000000
      4.95120      4.95120      1.65040         0.000000     -0.000000     -0.000000
      0.00000      3.30080      3.30080        -0.000000     -0.000000     -0.000000
      1.65040      4.95120      4.95120        -0.000000      0.000000      0.000000
      3.30080      0.00000      3.30080        -0.000000      0.000000     -0.000000
      4.95120      1.65040      4.95120         0.000000      0.000000      0.000000
      3.30080      3.30080      3.30080        -0.000000     -0.000000      0.000000
      4.95120      4.95120      4.95120         0.000000      0.000000      0.000000
    total drift:                                0.000000      0.000000      0.000000

  FREE ENERGIE OF THE ION-ELECTRON SYSTEM (eV)
  free  energy   TOTEN  =      -178.43097182 eV

  energy  without entropy=     -177.94582203  energy(sigma->0) =     -178.18839693

 writing wavefunctions