 vasp.5.4.4.18Apr17-6-g9f103f2a35 (build May 20 2018 16:52:39) complex

 executed on             LinuxIFC date 2022.10.31  01:25:00

 INCAR:
 POTCAR:    PAW Ga
 POTCAR:    PAW As
 POTCAR:    PAW Ga
   VRHFIN =Ga: s2p1

   TITEL  = PAW Ga
   POMASS =   69.723; ZVAL   =    3.000    mass and valenz
   ENMAX  =  134.733; ENMIN  =  101.050 eV
   QCUT   =   -3.147; QGAM   =    6.294    optimization parameters

   Description
     l     E      TYP  RCUT    TYP  RCUT
     0   .000     23  2.600
     0   .000     23  2.600
     1   .000     23  2.600
     1   .000     23  2.600
     2   .100     23  2.600
     3  -.100      7  2.600

 POTCAR:    PAW As
   VRHFIN =As: s2p3

   TITEL  = PAW As
   POMASS =   74.922; ZVAL   =    5.000    mass and valenz
   ENMAX  =  208.733; ENMIN  =  156.550 eV
   QCUT   =   -3.917; QGAM   =    7.834    optimization parameters

   Description
     l     E      TYP  RCUT    TYP  RCUT
     0   .000     23  2.100
     0   .000     23  2.100
     1   .000     23  2.100
     1   .000     23  2.100
     2   .000     23  2.100
     3  -.100      7  2.100

  PAW Ga                                :
  PAW As                                :

 POSCAR: GaAs
  positions in direct lattice
  velocities in cartesian coordinates
 exchange correlation table for  LEXCH =        7
   RHO(1)=    0.500       N(1)  =     2000
   RHO(2)=  100.500       N(2)  =     4000

 ion  position               nearest neighbor table
   1  0.000  0.000  0.000-   2 2.49   2 2.49   2 2.49   2 2.49
   2  0.250  0.250  0.250-   1 2.49   1 2.49   1 2.49   1 2.49

  LATTYP: Found a face centered cubic cell.
 ALAT       =     5.7528388383

  Lattice vectors:

 A1 = (   0.0000000000,   2.8764194191,   2.8764194191)
 A2 = (   2.8764194191,   0.0000000000,   2.8764194191)
 A3 = (   2.8764194191,   2.8764194191,   0.0000000000)

Analysis of symmetry for initial positions (statically):
 Subroutine PRICEL returns:
 Original cell was already a primitive cell.

 Routine SETGRP: Setting up the symmetry group for a
 face centered cubic supercell.

 Subroutine GETGRP returns: Found 24 space group operations
 (whereof 24 operations were pure point group operations)
 out of a pool of 48 trial point group operations.

The static configuration has the point symmetry T_d .

Analysis of symmetry for dynamics (positions and initial velocities):
 Subroutine PRICEL returns:
 Original cell was already a primitive cell.

 Routine SETGRP: Setting up the symmetry group for a
 face centered cubic supercell.

 Subroutine GETGRP returns: Found 24 space group operations
 (whereof 24 operations were pure point group operations)
 out of a pool of 48 trial point group operations.

The dynamic configuration has the point symmetry T_d .

 Subroutine INISYM returns: Found 24 space group operations
 (whereof 24 operations are pure point group operations),
 and found     1 'primitive' translations

 KPOINTS: 20x20x20

Automatic generation of k-mesh.
Space group operators:
 irot       det(A)        alpha          n_x          n_y          n_z        tau_x        tau_y        tau_z
    1     1.000000     0.000001     1.000000     0.000000     0.000000     0.000000     0.000000     0.000000
    2     1.000000   120.000000    -0.577350    -0.577350    -0.577350     0.000000     0.000000     0.000000
    3     1.000000   120.000000     0.577350     0.577350     0.577350     0.000000     0.000000     0.000000
    4    -1.000000    90.000000     0.000000     0.000000    -1.000000     0.000000     0.000000     0.000000
    5    -1.000000   180.000000     0.000000     0.707107     0.707107     0.000000     0.000000     0.000000
    6    -1.000000    90.000000     0.000000     1.000000     0.000000     0.000000     0.000000     0.000000
    7     1.000000   180.000000     0.000000     0.000000     1.000000     0.000000     0.000000     0.000000
    8     1.000000   120.000000    -0.577350     0.577350     0.577350     0.000000     0.000000     0.000000
    9     1.000000   120.000000    -0.577350     0.577350    -0.577350     0.000000     0.000000     0.000000
   10    -1.000000    90.000000     0.000000     0.000000     1.000000     0.000000     0.000000     0.000000
   11    -1.000000    90.000000    -1.000000     0.000000     0.000000     0.000000     0.000000     0.000000
   12    -1.000000   180.000000     0.707107     0.000000     0.707107     0.000000     0.000000     0.000000
   13     1.000000   120.000000     0.577350    -0.577350     0.577350     0.000000     0.000000     0.000000
   14     1.000000   120.000000    -0.577350    -0.577350     0.577350     0.000000     0.000000     0.000000
   15     1.000000   180.000000     1.000000     0.000000     0.000000     0.000000     0.000000     0.000000
   16    -1.000000    90.000000     0.000000    -1.000000     0.000000     0.000000     0.000000     0.000000
   17    -1.000000   180.000000     0.707107     0.707107     0.000000     0.000000     0.000000     0.000000
   18    -1.000000    90.000000     1.000000     0.000000     0.000000     0.000000     0.000000     0.000000
   19     1.000000   120.000000     0.577350    -0.577350    -0.577350     0.000000     0.000000     0.000000
   20     1.000000   180.000000     0.000000     1.000000     0.000000     0.000000     0.000000     0.000000
   21     1.000000   120.000000     0.577350     0.577350    -0.577350     0.000000     0.000000     0.000000
   22    -1.000000   180.000000     0.000000    -0.707107     0.707107     0.000000     0.000000     0.000000
   23    -1.000000   180.000000     0.707107    -0.707107     0.000000     0.000000     0.000000     0.000000
   24    -1.000000   180.000000     0.707107     0.000000    -0.707107     0.000000     0.000000     0.000000

 Subroutine IBZKPT returns following result:

 Found    770 irreducible k-points:

 Following reciprocal coordinates:
            Coordinates               Weight
  0.025000  0.025000  0.025000     96.000000
  0.075000  0.025000  0.025000    288.000000
  0.125000  0.025000  0.025000    288.000000
  0.175000  0.025000  0.025000    288.000000
  0.225000  0.025000  0.025000    288.000000
  0.275000  0.025000  0.025000    288.000000
  0.325000  0.025000  0.025000    288.000000
  0.375000  0.025000  0.025000    288.000000
  0.425000  0.025000  0.025000    288.000000
  0.475000  0.025000  0.025000    288.000000
 -0.475000  0.025000  0.025000    288.000000
 -0.425000  0.025000  0.025000    288.000000
 -0.375000  0.025000  0.025000    288.000000
 -0.325000  0.025000  0.025000    288.000000
 -0.275000  0.025000  0.025000    288.000000
 -0.225000  0.025000  0.025000    288.000000
 -0.175000  0.025000  0.025000    288.000000
 -0.125000  0.025000  0.025000    288.000000
 -0.075000  0.025000  0.025000    288.000000
 -0.025000  0.025000  0.025000    288.000000
  0.075000  0.075000  0.025000    288.000000
  0.125000  0.075000  0.025000    576.000000
  0.175000  0.075000  0.025000    576.000000
  0.225000  0.075000  0.025000    576.000000
  0.275000  0.075000  0.025000    576.000000
  0.325000  0.075000  0.025000    576.000000
  0.375000  0.075000  0.025000    576.000000
  0.425000  0.075000  0.025000    576.000000
  0.475000  0.075000  0.025000    576.000000
 -0.475000  0.075000  0.025000    576.000000
 -0.425000  0.075000  0.025000    576.000000
 -0.375000  0.075000  0.025000    576.000000
 -0.325000  0.075000  0.025000    576.000000
 -0.275000  0.075000  0.025000    576.000000
 -0.225000  0.075000  0.025000    576.000000
 -0.175000  0.075000  0.025000    576.000000
 -0.125000  0.075000  0.025000    576.000000
 -0.075000  0.075000  0.025000    576.000000
 -0.025000  0.075000  0.025000    576.000000
  0.125000  0.125000  0.025000    288.000000
  0.175000  0.125000  0.025000    576.000000
  0.225000  0.125000  0.025000    576.000000
  0.275000  0.125000  0.025000    576.000000
  0.325000  0.125000  0.025000    576.000000
  0.375000  0.125000  0.025000    576.000000
  0.425000  0.125000  0.025000    576.000000
  0.475000  0.125000  0.025000    576.000000
 -0.475000  0.125000  0.025000    576.000000
 -0.425000  0.125000  0.025000    576.000000
 -0.375000  0.125000  0.025000    576.000000
 -0.325000  0.125000  0.025000    576.000000
 -0.275000  0.125000  0.025000    576.000000
 -0.225000  0.125000  0.025000    576.000000
 -0.175000  0.125000  0.025000    576.000000
 -0.125000  0.125000  0.025000    576.000000
 -0.075000  0.125000  0.025000    576.000000
 -0.025000  0.125000  0.025000    576.000000
  0.175000  0.175000  0.025000    288.000000
  0.225000  0.175000  0.025000    576.000000
  0.275000  0.175000  0.025000    576.000000
[...]
 -0.425000  0.475000  0.375000    576.000000
 -0.375000  0.475000  0.375000    576.000000
 -0.475000 -0.475000  0.375000    288.000000
 -0.425000 -0.475000  0.375000    576.000000
 -0.425000 -0.425000  0.375000    288.000000
  0.425000  0.425000  0.425000     96.000000
  0.475000  0.425000  0.425000    288.000000
 -0.475000  0.425000  0.425000    288.000000
 -0.425000  0.425000  0.425000    288.000000
  0.475000  0.475000  0.425000    288.000000
 -0.475000  0.475000  0.425000    576.000000
 -0.425000  0.475000  0.425000    576.000000
 -0.475000 -0.475000  0.425000    288.000000
  0.475000  0.475000  0.475000     96.000000
 -0.475000  0.475000  0.475000    288.000000

 Following cartesian coordinates:
            Coordinates               Weight
  0.024988  0.024988  0.024988     96.000000
 -0.024988  0.074963  0.074963    288.000000
 -0.074963  0.124938  0.124938    288.000000
 -0.124938  0.174914  0.174914    288.000000
 -0.174914  0.224889  0.224889    288.000000
 -0.224889  0.274864  0.274864    288.000000
 -0.274864  0.324840  0.324840    288.000000
 -0.324840  0.374815  0.374815    288.000000
 -0.374815  0.424790  0.424790    288.000000
 -0.424790  0.474766  0.474766    288.000000
  0.524741 -0.474766 -0.474766    288.000000
  0.474766 -0.424790 -0.424790    288.000000
  0.424790 -0.374815 -0.374815    288.000000
  0.374815 -0.324840 -0.324840    288.000000
  0.324840 -0.274864 -0.274864    288.000000
  0.274864 -0.224889 -0.224889    288.000000
  0.224889 -0.174914 -0.174914    288.000000
  0.174914 -0.124938 -0.124938    288.000000
  0.124938 -0.074963 -0.074963    288.000000
  0.074963 -0.024988 -0.024988    288.000000
  0.024988  0.024988  0.124938    288.000000
 -0.024988  0.074963  0.174914    576.000000
 -0.074963  0.124938  0.224889    576.000000
 -0.124938  0.174914  0.274864    576.000000
 -0.174914  0.224889  0.324840    576.000000
 -0.224889  0.274864  0.374815    576.000000
 -0.274864  0.324840  0.424790    576.000000
 -0.324840  0.374815  0.474766    576.000000
 -0.374815  0.424790  0.524741    576.000000
  0.574716 -0.524741 -0.424790    576.000000
  0.524741 -0.474766 -0.374815    576.000000
  0.474766 -0.424790 -0.324840    576.000000
  0.424790 -0.374815 -0.274864    576.000000
  0.374815 -0.324840 -0.224889    576.000000
  0.324840 -0.274864 -0.174914    576.000000
  0.274864 -0.224889 -0.124938    576.000000
  0.224889 -0.174914 -0.074963    576.000000
  0.174914 -0.124938 -0.024988    576.000000
  0.124938 -0.074963  0.024988    576.000000
  0.024988  0.024988  0.224889    288.000000
 -0.024988  0.074963  0.274864    576.000000
[...]
   1.43820971  1.43820971  1.43820971

 k-point  1 :   0.0250 0.0250 0.0250  plane waves:     331
 k-point  2 :   0.0750 0.0250 0.0250  plane waves:     331
 k-point  3 :   0.1250 0.0250 0.0250  plane waves:     329
 k-point  4 :   0.1750 0.0250 0.0250  plane waves:     322
 k-point  5 :   0.2250 0.0250 0.0250  plane waves:     320
 k-point  6 :   0.2750 0.0250 0.0250  plane waves:     322
 k-point  7 :   0.3250 0.0250 0.0250  plane waves:     323
 k-point  8 :   0.3750 0.0250 0.0250  plane waves:     326
 k-point  9 :   0.4250 0.0250 0.0250  plane waves:     328
 k-point 10 :   0.4750 0.0250 0.0250  plane waves:     334
 k-point 11 :  -0.4750 0.0250 0.0250  plane waves:     332
 k-point 12 :  -0.4250 0.0250 0.0250  plane waves:     331
 k-point 13 :  -0.3750 0.0250 0.0250  plane waves:     327
 k-point 14 :  -0.3250 0.0250 0.0250  plane waves:     328
 k-point 15 :  -0.2750 0.0250 0.0250  plane waves:     323
 k-point 16 :  -0.2250 0.0250 0.0250  plane waves:     322
 k-point 17 :  -0.1750 0.0250 0.0250  plane waves:     320
 k-point 18 :  -0.1250 0.0250 0.0250  plane waves:     324
 k-point 19 :  -0.0750 0.0250 0.0250  plane waves:     331
 k-point 20 :  -0.0250 0.0250 0.0250  plane waves:     331
 k-point 21 :   0.0750 0.0750 0.0250  plane waves:     331
 k-point 22 :   0.1250 0.0750 0.0250  plane waves:     329
 k-point 23 :   0.1750 0.0750 0.0250  plane waves:     324
 k-point 24 :   0.2250 0.0750 0.0250  plane waves:     321
 k-point 25 :   0.2750 0.0750 0.0250  plane waves:     321
 k-point 26 :   0.3250 0.0750 0.0250  plane waves:     325
 k-point 27 :   0.3750 0.0750 0.0250  plane waves:     327
 k-point 28 :   0.4250 0.0750 0.0250  plane waves:     328
 k-point 29 :   0.4750 0.0750 0.0250  plane waves:     330
 k-point 30 :  -0.4750 0.0750 0.0250  plane waves:     331
 k-point 31 :  -0.4250 0.0750 0.0250  plane waves:     330
 k-point 32 :  -0.3750 0.0750 0.0250  plane waves:     327
 k-point 33 :  -0.3250 0.0750 0.0250  plane waves:     327
 k-point 34 :  -0.2750 0.0750 0.0250  plane waves:     325
 k-point 35 :  -0.2250 0.0750 0.0250  plane waves:     322
 k-point 36 :  -0.1750 0.0750 0.0250  plane waves:     321
 k-point 37 :  -0.1250 0.0750 0.0250  plane waves:     323
 k-point 38 :  -0.0750 0.0750 0.0250  plane waves:     329
 k-point 39 :  -0.0250 0.0750 0.0250  plane waves:     331
 k-point 40 :   0.1250 0.1250 0.0250  plane waves:     328
 k-point 41 :   0.1750 0.1250 0.0250  plane waves:     325
 k-point 42 :   0.2250 0.1250 0.0250  plane waves:     322
 k-point 43 :   0.2750 0.1250 0.0250  plane waves:     324
 k-point 44 :   0.3250 0.1250 0.0250  plane waves:     325
 k-point 45 :   0.3750 0.1250 0.0250  plane waves:     328
 k-point 46 :   0.4250 0.1250 0.0250  plane waves:     329
 k-point 47 :   0.4750 0.1250 0.0250  plane waves:     329
 k-point 48 :  -0.4750 0.1250 0.0250  plane waves:     327
 k-point 49 :  -0.4250 0.1250 0.0250  plane waves:     328
 k-point 50 :  -0.3750 0.1250 0.0250  plane waves:     329
 k-point 51 :  -0.3250 0.1250 0.0250  plane waves:     324
 k-point 52 :  -0.2750 0.1250 0.0250  plane waves:     324
 k-point 53 :  -0.2250 0.1250 0.0250  plane waves:     324
 k-point 54 :  -0.1750 0.1250 0.0250  plane waves:     321
 k-point 55 :  -0.1250 0.1250 0.0250  plane waves:     321
 k-point 56 :  -0.0750 0.1250 0.0250  plane waves:     322
 k-point 57 :  -0.0250 0.1250 0.0250  plane waves:     325
 k-point 58 :   0.1750 0.1750 0.0250  plane waves:     327
 k-point 59 :   0.2250 0.1750 0.0250  plane waves:     322
 k-point 60 :   0.2750 0.1750 0.0250  plane waves:     325
[...]
 k-point 85 :  -0.2750 0.2250 0.0250  plane waves:     325
 k-point 86 :  -0.2250 0.2250 0.0250  plane waves:     324
 k-point 87 :  -0.1750 0.2250 0.0250  plane waves:     323
 k-point 88 :  -0.1250 0.2250 0.0250  plane waves:     323
 k-point 89 :  -0.0750 0.2250 0.0250  plane waves:     323
 k-point 90 :  -0.0250 0.2250 0.0250  plane waves:     320
 k-point 91 :   0.2750 0.2750 0.0250  plane waves:     317
 k-point 92 :   0.3250 0.2750 0.0250  plane waves:     322
 k-point 93 :   0.3750 0.2750 0.0250  plane waves:     326
 k-point 94 :   0.4250 0.2750 0.0250  plane waves:     327
 k-point 95 :   0.4750 0.2750 0.0250  plane waves:     327
 k-point 96 :  -0.4750 0.2750 0.0250  plane waves:     326
 k-point 97 :  -0.4250 0.2750 0.0250  plane waves:     326
 k-point 98 :  -0.3750 0.2750 0.0250  plane waves:     327
 k-point 99 :  -0.3250 0.2750 0.0250  plane waves:     330
 k-point ** :  -0.2750 0.2750 0.0250  plane waves:     331
 k-point ** :  -0.2250 0.2750 0.0250  plane waves:     324
 k-point ** :  -0.1750 0.2750 0.0250  plane waves:     325
 k-point ** :  -0.1250 0.2750 0.0250  plane waves:     323
 k-point ** :  -0.0750 0.2750 0.0250  plane waves:     324
 k-point ** :  -0.0250 0.2750 0.0250  plane waves:     322
 k-point ** :   0.3250 0.3250 0.0250  plane waves:     323
 k-point ** :   0.3750 0.3250 0.0250  plane waves:     323
 k-point ** :   0.4250 0.3250 0.0250  plane waves:     326
 k-point ** :   0.4750 0.3250 0.0250  plane waves:     329
 k-point ** :  -0.4750 0.3250 0.0250  plane waves:     328
 k-point ** :  -0.4250 0.3250 0.0250  plane waves:     329
 k-point ** :  -0.3750 0.3250 0.0250  plane waves:     326
 k-point ** :  -0.3250 0.3250 0.0250  plane waves:     325
 k-point ** :  -0.2750 0.3250 0.0250  plane waves:     330
 k-point ** :  -0.2250 0.3250 0.0250  plane waves:     330
 k-point ** :  -0.1750 0.3250 0.0250  plane waves:     326
 k-point ** :  -0.1250 0.3250 0.0250  plane waves:     323
 k-point ** :  -0.0750 0.3250 0.0250  plane waves:     326
 k-point ** :  -0.0250 0.3250 0.0250  plane waves:     325
 k-point ** :   0.3750 0.3750 0.0250  plane waves:     323
 k-point ** :   0.4250 0.3750 0.0250  plane waves:     324
 k-point ** :   0.4750 0.3750 0.0250  plane waves:     326
 k-point ** :  -0.4750 0.3750 0.0250  plane waves:     327
 k-point ** :  -0.4250 0.3750 0.0250  plane waves:     325
 k-point ** :  -0.3750 0.3750 0.0250  plane waves:     330
 k-point ** :  -0.3250 0.3750 0.0250  plane waves:     330
 k-point ** :  -0.2750 0.3750 0.0250  plane waves:     325
 k-point ** :  -0.2250 0.3750 0.0250  plane waves:     327
 k-point ** :  -0.1750 0.3750 0.0250  plane waves:     326
 k-point ** :  -0.1250 0.3750 0.0250  plane waves:     328
 k-point ** :  -0.0750 0.3750 0.0250  plane waves:     327
 k-point ** :  -0.0250 0.3750 0.0250  plane waves:     327
 k-point ** :   0.4250 0.4250 0.0250  plane waves:     324
 k-point ** :   0.4750 0.4250 0.0250  plane waves:     327
 k-point ** :  -0.4750 0.4250 0.0250  plane waves:     327
 k-point ** :  -0.4250 0.4250 0.0250  plane waves:     324
 k-point ** :  -0.3750 0.4250 0.0250  plane waves:     326
 k-point ** :  -0.3250 0.4250 0.0250  plane waves:     330
 k-point ** :  -0.2750 0.4250 0.0250  plane waves:     327
 k-point ** :  -0.2250 0.4250 0.0250  plane waves:     327
 k-point ** :  -0.1750 0.4250 0.0250  plane waves:     329
 k-point ** :  -0.1250 0.4250 0.0250  plane waves:     328
 k-point ** :  -0.0750 0.4250 0.0250  plane waves:     330
 k-point ** :  -0.0250 0.4250 0.0250  plane waves:     327
 k-point ** :   0.4750 0.4750 0.0250  plane waves:     332
 k-point ** :  -0.4750 0.4750 0.0250  plane waves:     331
 k-point ** :  -0.4250 0.4750 0.0250  plane waves:     327
 k-point ** :  -0.3750 0.4750 0.0250  plane waves:     323
 k-point ** :  -0.3250 0.4750 0.0250  plane waves:     326
 k-point ** :  -0.2750 0.4750 0.0250  plane waves:     325
 k-point ** :  -0.2250 0.4750 0.0250  plane waves:     323
 k-point ** :  -0.1750 0.4750 0.0250  plane waves:     326
 k-point ** :  -0.1250 0.4750 0.0250  plane waves:     327
 k-point ** :  -0.0750 0.4750 0.0250  plane waves:     329
 k-point ** :  -0.0250 0.4750 0.0250  plane waves:     333
 k-point ** :  -0.4750-0.4750 0.0250  plane waves:     334
 k-point ** :  -0.4250-0.4750 0.0250  plane waves:     330
 k-point ** :  -0.3750-0.4750 0.0250  plane waves:     327
 k-point ** :  -0.3250-0.4750 0.0250  plane waves:     328
[...]
 k-point ** :  -0.4250 0.4750 0.3750  plane waves:     325
 k-point ** :  -0.3750 0.4750 0.3750  plane waves:     325
 k-point ** :  -0.4750-0.4750 0.3750  plane waves:     328
 k-point ** :  -0.4250-0.4750 0.3750  plane waves:     327
 k-point ** :  -0.4250-0.4250 0.3750  plane waves:     323
 k-point ** :   0.4250 0.4250 0.4250  plane waves:     329
 k-point ** :   0.4750 0.4250 0.4250  plane waves:     330
 k-point ** :  -0.4750 0.4250 0.4250  plane waves:     328
 k-point ** :  -0.4250 0.4250 0.4250  plane waves:     327
 k-point ** :   0.4750 0.4750 0.4250  plane waves:     330
 k-point ** :  -0.4750 0.4750 0.4250  plane waves:     329
 k-point ** :  -0.4250 0.4750 0.4250  plane waves:     327
 k-point ** :  -0.4750-0.4750 0.4250  plane waves:     330
 k-point ** :   0.4750 0.4750 0.4750  plane waves:     332
 k-point ** :  -0.4750 0.4750 0.4750  plane waves:     333

 maximum and minimum number of plane-waves per node :       334      317

 maximum number of plane-waves:       334
 maximum index in each direction:
   IXMAX=    5   IYMAX=    5   IZMAX=    4
   IXMIN=   -5   IYMIN=   -5   IZMIN=   -5

 serial   3D FFT for wavefunctions
 parallel 3D FFT for charge:
    minimum data exchange during FFTs selected (reduces bandwidth)

 Broyden mixing: mesh for mixing (old mesh)
   NGX =  9   NGY =  9   NGZ =  9
  (NGX  = 28   NGY  = 28   NGZ  = 28)
  gives a total of    729 points

 initial charge density was supplied:
 charge density of overlapping atoms calculated
 number of electron       8.0000000 magnetization
 keeping initial charge density in first step

 Maximum index for augmentation-charges         4093 (set IRDMAX)

 First call to EWALD:  gamma=   0.489
 Maximum number of real-space cells 3x 3x 3
 Maximum number of reciprocal cells 3x 3x 3

--------------------------------------- Iteration      1(   1)  ---------------------------------------

 BZINTS: Fermi energy:  5.497144;  8.000000 electrons
         Band energy: -11.328498;  BLOECHL correction: -0.072276

 eigenvalue-minimisations  : 12600
 total energy-change (2. order) : 0.5602000E+01  (-0.2155813E+03)
 number of electron       8.0000000 magnetization
 augmentation part        8.0000000 magnetization

 Free energy of the ion-electron system (eV)
  alpha Z        PSCENC =        17.36684317
  Ewald energy   TEWEN  =      -225.20590383
  -Hartree energ DENC   =       -18.77901645
  -exchange      EXHF   =         0.00000000
  -V(xc)+E(xc)   XCENC  =       -31.63101584
  PAW double counting   =       108.26776145      -62.69322138
  entropy T*S    EENTRO =         0.00000000
  eigenvalues    EBANDS =       -11.32849837
  atomic energy  EATOM  =       229.60505158
  Solvation  Ediel_sol  =         0.00000000
  free energy    TOTEN  =         5.60200032 eV

  energy without entropy =        5.60200032  energy(sigma->0) =        5.60200032

[...]

 eigenvalue-minimisations  : 18488
 total energy-change (2. order) :-0.1389434E+02  (-0.1368288E+02)
 number of electron       8.0000000 magnetization
 augmentation part        8.0000000 magnetization

[...]

 Broyden mixing:
  rms(total) = 0.23017E+00    rms(broyden)= 0.22999E+00
  rms(prec ) = 0.71727E+00
  weight for this iteration     100.00

[...]

 eigenvalues of (default mixing * dielectric matrix)
  average eigenvalue GAMMA=   1.9833
  1.9833

[...]

 eigenvalue-minimisations  : 13208
 total energy-change (2. order) : 0.1010780E-02  (-0.8728094E-03)
 number of electron       8.0000012 magnetization
 augmentation part       -1.2983261 magnetization

[...]

 Broyden mixing:
  rms(total) = 0.23520E-03    rms(broyden)= 0.23506E-03
  rms(prec ) = 0.72980E-03
  weight for this iteration     100.00

 eigenvalues of (default mixing * dielectric matrix)
  average eigenvalue GAMMA=   1.9292
  3.2593  2.5717  2.2661  1.3487  0.9794  1.1496

[...]

--------------------------------------- Iteration      1(  12)  ---------------------------------------

[...]

 eigenvalue-minimisations  :  7864
 total energy-change (2. order) :-0.5686241E-06  (-0.1149012E-06)
 number of electron       8.0000012 magnetization
 augmentation part       -1.2984844 magnetization

 Free energy of the ion-electron system (eV)
  alpha Z        PSCENC =        17.36684317
  Ewald energy   TEWEN  =      -225.20590383
  -Hartree energ DENC   =       -22.14668477
  -exchange      EXHF   =         0.00000000
  -V(xc)+E(xc)   XCENC  =       -30.94257427
  PAW double counting   =       130.54634457      -85.37406613
  entropy T*S    EENTRO =         0.00000000
  eigenvalues    EBANDS =       -22.18656365
  atomic energy  EATOM  =       229.60505158
  Solvation  Ediel_sol  =         0.00000000
  free energy    TOTEN  =        -8.33755334 eV

  energy without entropy =       -8.33755334  energy(sigma->0) =       -8.33755334

 average (electrostatic) potential at core
  the test charge radii are     1.2767  1.0621
  (the norm of the test charge is              1.0000)
       1 -16.0625       2 -52.7031

 E-fermi :   2.3512     XC(G=0):  -9.0115     alpha+bet : -8.1875

 k-point     1 :       0.0250    0.0250    0.0250
  band No.  band energies     occupation
      1      -9.9867      2.00000
      2       2.0298      2.00000
      3       2.3349      2.00000
      4       2.3349      2.00000
      5       2.8003      0.00000
      6       6.0965      0.00000
      7       6.1050      0.00000
      8       6.1050      0.00000

[...]

 k-point   770 :      -0.4750    0.4750    0.4750
  band No.  band energies     occupation
      1      -8.4733      2.00000
      2      -3.9735      2.00000
      3       1.0231      2.00000
      4       1.2553      2.00000
      5       3.4930      0.00000
      6       6.9176      0.00000
      7       7.0694      0.00000
      8      10.1312      0.00000

 soft charge-density along one line, spin component           1
         0         1         2         3         4         5         6         7         8         9
 total charge-density along one line

------------------------ aborting loop because EDIFF is reached ----------------------------------------

  FORCE on cell =-STRESS in cart. coord.  units (eV):
  Direction    XX          YY          ZZ          XY          YZ          ZX
  Alpha Z    17.36684    17.36684    17.36684
  Ewald     -75.06867   -75.06867   -75.06867    -0.00000     0.00000     0.00000
  Hartree     7.38248     7.38248     7.38248    -0.00000    -0.00000    -0.00000
  E(xc)     -29.84891   -29.84891   -29.84891     0.00001     0.00001     0.00001
  Local     -30.77415   -30.77415   -30.77415     0.00034     0.00034     0.00034
  n-local    45.37329    46.85495    43.78061     0.72840    -0.73576     0.00323
  augment     1.18507     1.18507     1.18507    -0.00019    -0.00019    -0.00019
  Kinetic    65.66114    65.99081    61.61482     1.40457    -1.41215     0.00965
  Fock        0.00000     0.00000     0.00000     0.00000     0.00000     0.00000
  Total       0.00121     0.00121     0.00121     0.00000     0.00000     0.00000
  in kB       0.04061     0.04061     0.04061     0.00000     0.00000     0.00000

 VOLUME and BASIS-vectors are now :
  energy-cutoff  :      208.73
  volume of cell :       47.60
      direct lattice vectors                 reciprocal lattice vectors
     0.000000000  2.876419419  2.876419419    -0.173827223  0.173827223  0.173827223
     2.876419419  0.000000000  2.876419419     0.173827223 -0.173827223  0.173827223
     2.876419419  2.876419419  0.000000000     0.173827223  0.173827223 -0.173827223

  length of vectors
     4.067871354  4.067871354  4.067871354     0.301077582  0.301077582  0.301077582

 FORCES acting on ions
    electron-ion (+dipol)            ewald-force                    non-local-force                 convergence-correction
   -.982E-05 -.982E-05 -.982E-05   -.172E-14 0.281E-14 -.450E-14   -.304E-17 -.304E-17 -.291E-17   -.279E-07 -.279E-07 -.279E-07
   -.645E-06 -.645E-06 -.645E-06   0.173E-14 -.297E-14 0.437E-14   0.347E-16 0.416E-16 0.355E-16   -.128E-08 -.128E-08 -.128E-08
   -.105E-04 -.105E-04 -.105E-04   0.994E-17 -.152E-15 -.130E-15   0.317E-16 0.386E-16 0.326E-16   -.292E-07 -.292E-07 -.292E-07

 POSITION                                       TOTAL-FORCE (eV/Angst)
      0.00000      0.00000      0.00000        -0.000000     -0.000000     -0.000000
      1.43821      1.43821      1.43821         0.000000      0.000000      0.000000
    total drift:                               -0.000010     -0.000010     -0.000010

  FREE ENERGIE OF THE ION-ELECTRON SYSTEM (eV)
  free  energy   TOTEN  =        -8.33755334 eV

  energy  without entropy=       -8.33755334  energy(sigma->0) =       -8.33755334

 BZINTS: Fermi energy:  2.351216;  8.000000 electrons
         Band energy: -22.186564;  BLOECHL correction:  0.000000