 vasp.5.4.4.18Apr17-6-g9f103f2a35 (build May 20 2018 16:52:39) complex

 executed on             LinuxIFC date 2022.11.14  01:04:55

 INCAR:
 POTCAR:    PAW Al
 POTCAR:    PAW Al
   VRHFIN =Al: s2p1

   TITEL  = PAW Al
   POMASS =   26.982; ZVAL   =    3.000    mass and valenz
   ENMAX  =  240.437; ENMIN  =  180.327 eV
   QCUT   =   -4.204; QGAM   =    8.408    optimization parameters

   Description
     l     E      TYP  RCUT    TYP  RCUT
     0   .000     23  1.900
     0   .000     23  1.900
     1   .000     23  1.900
     1  1.000     23  1.900
     2   .000      7  1.900

  PAW Al                                :

 POSCAR: Al fcc
  positions in direct lattice
 exchange correlation table for  LEXCH =        7
   RHO(1)=    0.500       N(1)  =     2000
   RHO(2)=  100.500       N(2)  =     4000

 ion  position               nearest neighbor table
   1  0.000  0.000  0.000-

  LATTYP: Found a face centered cubic cell.
 ALAT       =     4.0500000000

  Lattice vectors:

 A1 = (   2.0250000000,   2.0250000000,   0.0000000000)
 A2 = (   0.0000000000,   2.0250000000,   2.0250000000)
 A3 = (   2.0250000000,   0.0000000000,   2.0250000000)

Analysis of symmetry for initial positions (statically):
 Subroutine PRICEL returns:
 Original cell was already a primitive cell.

 Routine SETGRP: Setting up the symmetry group for a
 face centered cubic supercell.

 Subroutine GETGRP returns: Found 48 space group operations
 (whereof 48 operations were pure point group operations)
 out of a pool of 48 trial point group operations.

The static configuration has the point symmetry O_h .

Analysis of symmetry for dynamics (positions and initial velocities):
 Subroutine PRICEL returns:
 Original cell was already a primitive cell.

 Routine SETGRP: Setting up the symmetry group for a
 face centered cubic supercell.

 Subroutine GETGRP returns: Found 48 space group operations
 (whereof 48 operations were pure point group operations)
 out of a pool of 48 trial point group operations.

The dynamic configuration has the point symmetry O_h .

 Subroutine INISYM returns: Found 48 space group operations
 (whereof 48 operations are pure point group operations),
 and found     1 'primitive' translations

 KPOINTS: K-Path Generated by VASPKIT.
  interpolating k-points between supplied coordinates
  k-points in reciprocal lattice
Space group operators:
 irot       det(A)        alpha          n_x          n_y          n_z        tau_x        tau_y        tau_z
    1     1.000000     0.000001     1.000000     0.000000     0.000000     0.000000     0.000000     0.000000
    2    -1.000000     0.000001     1.000000     0.000000     0.000000     0.000000     0.000000     0.000000
    3     1.000000   120.000000    -0.577350    -0.577350    -0.577350     0.000000     0.000000     0.000000
    4    -1.000000   120.000000    -0.577350    -0.577350    -0.577350     0.000000     0.000000     0.000000
    5     1.000000   120.000000     0.577350     0.577350     0.577350     0.000000     0.000000     0.000000
    6    -1.000000   120.000000     0.577350     0.577350     0.577350     0.000000     0.000000     0.000000
    7     1.000000    90.000000     0.000000    -1.000000     0.000000     0.000000     0.000000     0.000000
    8    -1.000000    90.000000     0.000000    -1.000000     0.000000     0.000000     0.000000     0.000000
    9     1.000000   180.000000     0.707107     0.707107     0.000000     0.000000     0.000000     0.000000
   10    -1.000000   180.000000     0.707107     0.707107     0.000000     0.000000     0.000000     0.000000
   11     1.000000    90.000000     1.000000     0.000000     0.000000     0.000000     0.000000     0.000000
   12    -1.000000    90.000000     1.000000     0.000000     0.000000     0.000000     0.000000     0.000000
   13     1.000000   180.000000     0.000000     1.000000     0.000000     0.000000     0.000000     0.000000
   14    -1.000000   180.000000     0.000000     1.000000     0.000000     0.000000     0.000000     0.000000
   15     1.000000   120.000000     0.577350     0.577350    -0.577350     0.000000     0.000000     0.000000
   16    -1.000000   120.000000     0.577350     0.577350    -0.577350     0.000000     0.000000     0.000000
   17     1.000000   120.000000     0.577350    -0.577350    -0.577350     0.000000     0.000000     0.000000
   18    -1.000000   120.000000     0.577350    -0.577350    -0.577350     0.000000     0.000000     0.000000
   19     1.000000    90.000000     0.000000     1.000000     0.000000     0.000000     0.000000     0.000000
   20    -1.000000    90.000000     0.000000     1.000000     0.000000     0.000000     0.000000     0.000000
   21     1.000000    90.000000     0.000000     0.000000    -1.000000     0.000000     0.000000     0.000000
   22    -1.000000    90.000000     0.000000     0.000000    -1.000000     0.000000     0.000000     0.000000
   23     1.000000   180.000000     0.000000     0.707107     0.707107     0.000000     0.000000     0.000000
   24    -1.000000   180.000000     0.000000     0.707107     0.707107     0.000000     0.000000     0.000000
   25     1.000000   120.000000    -0.577350     0.577350     0.577350     0.000000     0.000000     0.000000
   26    -1.000000   120.000000    -0.577350     0.577350     0.577350     0.000000     0.000000     0.000000
   27     1.000000   120.000000    -0.577350     0.577350    -0.577350     0.000000     0.000000     0.000000
   28    -1.000000   120.000000    -0.577350     0.577350    -0.577350     0.000000     0.000000     0.000000
   29     1.000000   180.000000     0.000000     0.000000     1.000000     0.000000     0.000000     0.000000
   30    -1.000000   180.000000     0.000000     0.000000     1.000000     0.000000     0.000000     0.000000
   31     1.000000    90.000000    -1.000000     0.000000     0.000000     0.000000     0.000000     0.000000
   32    -1.000000    90.000000    -1.000000     0.000000     0.000000     0.000000     0.000000     0.000000
   33     1.000000   180.000000     0.707107     0.000000     0.707107     0.000000     0.000000     0.000000
   34    -1.000000   180.000000     0.707107     0.000000     0.707107     0.000000     0.000000     0.000000
   35     1.000000    90.000000     0.000000     0.000000     1.000000     0.000000     0.000000     0.000000
   36    -1.000000    90.000000     0.000000     0.000000     1.000000     0.000000     0.000000     0.000000
   37     1.000000   120.000000    -0.577350    -0.577350     0.577350     0.000000     0.000000     0.000000
   38    -1.000000   120.000000    -0.577350    -0.577350     0.577350     0.000000     0.000000     0.000000
   39     1.000000   180.000000     1.000000     0.000000     0.000000     0.000000     0.000000     0.000000
   40    -1.000000   180.000000     1.000000     0.000000     0.000000     0.000000     0.000000     0.000000
   41     1.000000   120.000000     0.577350    -0.577350     0.577350     0.000000     0.000000     0.000000
   42    -1.000000   120.000000     0.577350    -0.577350     0.577350     0.000000     0.000000     0.000000
   43     1.000000   180.000000     0.707107    -0.707107     0.000000     0.000000     0.000000     0.000000
   44    -1.000000   180.000000     0.707107    -0.707107     0.000000     0.000000     0.000000     0.000000
   45     1.000000   180.000000     0.707107     0.000000    -0.707107     0.000000     0.000000     0.000000
   46    -1.000000   180.000000     0.707107     0.000000    -0.707107     0.000000     0.000000     0.000000
   47     1.000000   180.000000     0.000000    -0.707107     0.707107     0.000000     0.000000     0.000000
   48    -1.000000   180.000000     0.000000    -0.707107     0.707107     0.000000     0.000000     0.000000

 SYSTEM =  fcc Al
 POSCAR =  Al fcc

 Startparameter for this run:
   NWRITE =      2    write-flag & timer
   PREC   = normal    normal or accurate (medium, high low for compatibility)
   ISTART =      0    job   : 0-new  1-cont  2-samecut
   ICHARG =     11    charge: 1-file 2-atom 10-const
   ISPIN  =      1    spin polarized calculation?
   LNONCOLLINEAR =      F non collinear calculations
   LSORBIT =      F    spin-orbit coupling
   INIWAV =      1    electr: 0-lowe 1-rand  2-diag
   LASPH  =      F    aspherical Exc in radial PAW
   METAGGA=      F    non-selfconsistent MetaGGA calc.

 Electronic Relaxation 1
   ENCUT  =  500.0 eV  36.75 Ry    6.06 a.u.   5.22  5.22  5.22*2*pi/ulx,y,z
   ENINI  =  500.0     initial cutoff
   ENAUG  =  291.1 eV  augmentation charge cutoff
   NELM   =     60;   NELMIN=  2; NELMDL= -5     # of ELM steps
   EDIFF  = 0.1E-05   stopping-criterion for ELM
   LREAL  =      F    real-space projection
   NLSPLINE    = F    spline interpolate recip. space projectors
   LCOMPAT=      F    compatible to vasp.4.4
   GGA_COMPAT  = T    GGA compatible to vasp.4.4-vasp.4.6
   LMAXPAW     = -100 max onsite density
   LMAXMIX     =    2 max onsite mixed and CHGCAR
   VOSKOWN=      0    Vosko Wilk Nusair interpolation
   ROPT   =    0.00000
 Ionic relaxation
   EDIFFG = 0.1E-04   stopping-criterion for IOM
   NSW    =      0    number of steps for IOM
   NBLOCK =      1;   KBLOCK =      1    inner block; outer block
   IBRION =     -1    ionic relax: 0-MD 1-quasi-New 2-CG
   NFREE  =      0    steps in history (QN), initial steepest desc. (CG)
   ISIF   =      2    stress and relaxation
   IWAVPR =     10    prediction:  0-non 1-charg 2-wave 3-comb
   ISYM   =      2    0-nonsym 1-usesym 2-fastsym
   LCORR  =      T    Harris-Foulkes like correction to forces

   POTIM  = 0.5000    time-step for ionic-motion
   TEIN   =    0.0    initial temperature
   TEBEG  =    0.0;   TEEND  =   0.0 temperature during run
   SMASS  =  -3.00    Nose mass-parameter (am)
   estimated Nose-frequenzy (Omega)   =  0.10E-29 period in steps =****** mass=  -0.187E-27a.u.
   SCALEE = 1.0000    scale energy and forces
   NPACO  =    256;   APACO  = 16.0  distance and # of slots for P.C.
   PSTRESS=    0.0 pullay stress

  Mass of Ions in am
   POMASS =  26.98
  Ionic Valenz
   ZVAL   =   3.00
  Atomic Wigner-Seitz radii
  virtual crystal weights
   VCA    =   1.00
   NELECT =       3.0000    total number of electrons
   NUPDOWN=      -1.0000    fix difference up-down

 DOS related values:
   EMIN   =  10.00;   EMAX   =-10.00  energy-range for DOS
   EFERMI =   0.00
   ISMEAR =     1;   SIGMA  =   0.20  broadening in eV -4-tet -1-fermi 0-gaus

 Electronic relaxation 2 (details)
   IALGO  =     38    algorithm
   LDIAG  =      T    sub-space diagonalisation (order eigenvalues)
   LSUBROT=      F    optimize rotation matrix (better conditioning)
   TURBO    =      0    0=normal 1=particle mesh
   IRESTART =      0    0=no restart 2=restart with 2 vectors
   NREBOOT  =      0    no. of reboots
   NMIN     =      0    reboot dimension
   EREF     =   0.00    reference energy to select bands
   IMIX   =      4    mixing-type and parameters
     AMIX     =   0.40;   BMIX     =  1.00
     AMIX_MAG =   1.60;   BMIX_MAG =  1.00
     AMIN     =   0.10
     WC   =   100.;   INIMIX=   1;  MIXPRE=   1;  MAXMIX= -45

 Intra band minimization:
   WEIMIN = 0.0000     energy-eigenvalue tresh-hold
[...]
   0.40789474  0.34210526  0.75000000       0.006
   0.41447368  0.33552632  0.75000000       0.006
   0.42105263  0.32894737  0.75000000       0.006
   0.42763158  0.32236842  0.75000000       0.006
   0.43421053  0.31578947  0.75000000       0.006
   0.44078947  0.30921053  0.75000000       0.006
   0.44736842  0.30263158  0.75000000       0.006
   0.45394737  0.29605263  0.75000000       0.006
   0.46052632  0.28947368  0.75000000       0.006
   0.46710526  0.28289474  0.75000000       0.006
   0.47368421  0.27631579  0.75000000       0.006
   0.48026316  0.26973684  0.75000000       0.006
   0.48684211  0.26315789  0.75000000       0.006
   0.49342105  0.25657895  0.75000000       0.006
   0.50000000  0.25000000  0.75000000       0.006
   0.50000000  0.25000000  0.75000000       0.006
   0.47368421  0.23684211  0.71052632       0.006
   0.44736842  0.22368421  0.67105263       0.006
   0.42105263  0.21052632  0.63157895       0.006
   0.39473684  0.19736842  0.59210526       0.006
   0.36842105  0.18421053  0.55263158       0.006
   0.34210526  0.17105263  0.51315789       0.006
   0.31578947  0.15789474  0.47368421       0.006
   0.28947368  0.14473684  0.43421053       0.006
   0.26315789  0.13157895  0.39473684       0.006
   0.23684211  0.11842105  0.35526316       0.006
   0.21052632  0.10526316  0.31578947       0.006
   0.18421053  0.09210526  0.27631579       0.006
   0.15789474  0.07894737  0.23684211       0.006
   0.13157895  0.06578947  0.19736842       0.006
   0.10526316  0.05263158  0.15789474       0.006
   0.07894737  0.03947368  0.11842105       0.006
   0.05263158  0.02631579  0.07894737       0.006
   0.02631579  0.01315789  0.03947368       0.006
   0.00000000  0.00000000  0.00000000       0.006
[...]
   0.09868421  0.09868421  0.19736842       0.006
   0.11842105  0.11842105  0.23684211       0.006
   0.13815789  0.13815789  0.27631579       0.006
   0.15789474  0.15789474  0.31578947       0.006
   0.17763158  0.17763158  0.35526316       0.006
   0.19736842  0.19736842  0.39473684       0.006
   0.21710526  0.21710526  0.43421053       0.006
   0.23684211  0.23684211  0.47368421       0.006
   0.25657895  0.25657895  0.51315789       0.006
   0.27631579  0.27631579  0.55263158       0.006
   0.29605263  0.29605263  0.59210526       0.006
   0.31578947  0.31578947  0.63157895       0.006
   0.33552632  0.33552632  0.67105263       0.006
   0.35526316  0.35526316  0.71052632       0.006
   0.37500000  0.37500000  0.75000000       0.006

 position of ions in fractional coordinates (direct lattice)
   0.00000000  0.00000000  0.00000000

 position of ions in cartesian coordinates  (Angst):
   0.00000000  0.00000000  0.00000000

 k-point  1 :   0.5000 0.5000 0.5000  plane waves:     410
 k-point  2 :   0.4934 0.4934 0.5132  plane waves:     414
 k-point  3 :   0.4868 0.4868 0.5263  plane waves:     415
 k-point  4 :   0.4803 0.4803 0.5395  plane waves:     418
 k-point  5 :   0.4737 0.4737 0.5526  plane waves:     418
 k-point  6 :   0.4671 0.4671 0.5658  plane waves:     421
 k-point  7 :   0.4605 0.4605 0.5789  plane waves:     422
 k-point  8 :   0.4539 0.4539 0.5921  plane waves:     422
 k-point  9 :   0.4474 0.4474 0.6053  plane waves:     426
 k-point 10 :   0.4408 0.4408 0.6184  plane waves:     422
 k-point 11 :   0.4342 0.4342 0.6316  plane waves:     420
 k-point 12 :   0.4276 0.4276 0.6447  plane waves:     420
 k-point 13 :   0.4211 0.4211 0.6579  plane waves:     420
 k-point 14 :   0.4145 0.4145 0.6711  plane waves:     420
 k-point 15 :   0.4079 0.4079 0.6842  plane waves:     420
 k-point 16 :   0.4013 0.4013 0.6974  plane waves:     420
 k-point 17 :   0.3947 0.3947 0.7105  plane waves:     424
 k-point 18 :   0.3882 0.3882 0.7237  plane waves:     424
 k-point 19 :   0.3816 0.3816 0.7368  plane waves:     427
 k-point 20 :   0.3750 0.3750 0.7500  plane waves:     431
 k-point 21 :   0.3750 0.3750 0.7500  plane waves:     431
 k-point 22 :   0.3816 0.3684 0.7500  plane waves:     431
 k-point 23 :   0.3882 0.3618 0.7500  plane waves:     427
 k-point 24 :   0.3947 0.3553 0.7500  plane waves:     424
 k-point 25 :   0.4013 0.3487 0.7500  plane waves:     424
 k-point 26 :   0.4079 0.3421 0.7500  plane waves:     424
 k-point 27 :   0.4145 0.3355 0.7500  plane waves:     424
 k-point 28 :   0.4211 0.3289 0.7500  plane waves:     424
 k-point 29 :   0.4276 0.3224 0.7500  plane waves:     420
 k-point 30 :   0.4342 0.3158 0.7500  plane waves:     420
 k-point 31 :   0.4408 0.3092 0.7500  plane waves:     418
 k-point 32 :   0.4474 0.3026 0.7500  plane waves:     418
 k-point 33 :   0.4539 0.2961 0.7500  plane waves:     418
 k-point 34 :   0.4605 0.2895 0.7500  plane waves:     419
 k-point 35 :   0.4671 0.2829 0.7500  plane waves:     419
 k-point 36 :   0.4737 0.2763 0.7500  plane waves:     419
 k-point 37 :   0.4803 0.2697 0.7500  plane waves:     413
 k-point 38 :   0.4868 0.2632 0.7500  plane waves:     412
 k-point 39 :   0.4934 0.2566 0.7500  plane waves:     412
 k-point 40 :   0.5000 0.2500 0.7500  plane waves:     412
 k-point 41 :   0.5000 0.2500 0.7500  plane waves:     412
 k-point 42 :   0.4737 0.2368 0.7105  plane waves:     413
 k-point 43 :   0.4474 0.2237 0.6711  plane waves:     415
 k-point 44 :   0.4211 0.2105 0.6316  plane waves:     419
 k-point 45 :   0.3947 0.1974 0.5921  plane waves:     421
 k-point 46 :   0.3684 0.1842 0.5526  plane waves:     419
 k-point 47 :   0.3421 0.1711 0.5132  plane waves:     417
 k-point 48 :   0.3158 0.1579 0.4737  plane waves:     417
 k-point 49 :   0.2895 0.1447 0.4342  plane waves:     420
 k-point 50 :   0.2632 0.1316 0.3947  plane waves:     420
 k-point 51 :   0.2368 0.1184 0.3553  plane waves:     422
 k-point 52 :   0.2105 0.1053 0.3158  plane waves:     420
 k-point 53 :   0.1842 0.0921 0.2763  plane waves:     426
 k-point 54 :   0.1579 0.0789 0.2368  plane waves:     420
 k-point 55 :   0.1316 0.0658 0.1974  plane waves:     421
 k-point 56 :   0.1053 0.0526 0.1579  plane waves:     423
 k-point 57 :   0.0789 0.0395 0.1184  plane waves:     422
 k-point 58 :   0.0526 0.0263 0.0789  plane waves:     413
 k-point 59 :   0.0263 0.0132 0.0395  plane waves:     411
 k-point 60 :   0.0000 0.0000 0.0000  plane waves:     411
[...]
 k-point 85 :   0.5000 0.0526 0.5526  plane waves:     432
 k-point 86 :   0.5000 0.0658 0.5658  plane waves:     428
 k-point 87 :   0.5000 0.0789 0.5789  plane waves:     428
 k-point 88 :   0.5000 0.0921 0.5921  plane waves:     428
 k-point 89 :   0.5000 0.1053 0.6053  plane waves:     424
 k-point 90 :   0.5000 0.1184 0.6184  plane waves:     420
 k-point 91 :   0.5000 0.1316 0.6316  plane waves:     422
 k-point 92 :   0.5000 0.1447 0.6447  plane waves:     422
 k-point 93 :   0.5000 0.1579 0.6579  plane waves:     422
 k-point 94 :   0.5000 0.1711 0.6711  plane waves:     424
 k-point 95 :   0.5000 0.1842 0.6842  plane waves:     422
 k-point 96 :   0.5000 0.1974 0.6974  plane waves:     422
 k-point 97 :   0.5000 0.2105 0.7105  plane waves:     422
 k-point 98 :   0.5000 0.2237 0.7237  plane waves:     412
 k-point 99 :   0.5000 0.2368 0.7368  plane waves:     412
 k-point ** :   0.5000 0.2500 0.7500  plane waves:     412
 k-point ** :   0.5000 0.2500 0.7500  plane waves:     412
 k-point ** :   0.5000 0.2632 0.7368  plane waves:     412
 k-point ** :   0.5000 0.2763 0.7237  plane waves:     418
 k-point ** :   0.5000 0.2895 0.7105  plane waves:     420
 k-point ** :   0.5000 0.3026 0.6974  plane waves:     420
 k-point ** :   0.5000 0.3158 0.6842  plane waves:     418
 k-point ** :   0.5000 0.3289 0.6711  plane waves:     420
 k-point ** :   0.5000 0.3421 0.6579  plane waves:     418
 k-point ** :   0.5000 0.3553 0.6447  plane waves:     420
 k-point ** :   0.5000 0.3684 0.6316  plane waves:     418
 k-point ** :   0.5000 0.3816 0.6184  plane waves:     418
 k-point ** :   0.5000 0.3947 0.6053  plane waves:     422
 k-point ** :   0.5000 0.4079 0.5921  plane waves:     424
 k-point ** :   0.5000 0.4211 0.5789  plane waves:     424
 k-point ** :   0.5000 0.4342 0.5658  plane waves:     420
 k-point ** :   0.5000 0.4474 0.5526  plane waves:     418
 k-point ** :   0.5000 0.4605 0.5395  plane waves:     420
 k-point ** :   0.5000 0.4737 0.5263  plane waves:     418
 k-point ** :   0.5000 0.4868 0.5132  plane waves:     414
 k-point ** :   0.5000 0.5000 0.5000  plane waves:     410
 k-point ** :   0.5000 0.5000 0.5000  plane waves:     410
 k-point ** :   0.4737 0.4737 0.4737  plane waves:     416
 k-point ** :   0.4474 0.4474 0.4474  plane waves:     422
 k-point ** :   0.4211 0.4211 0.4211  plane waves:     422
 k-point ** :   0.3947 0.3947 0.3947  plane waves:     422
 k-point ** :   0.3684 0.3684 0.3684  plane waves:     422
 k-point ** :   0.3421 0.3421 0.3421  plane waves:     419
 k-point ** :   0.3158 0.3158 0.3158  plane waves:     422
 k-point ** :   0.2895 0.2895 0.2895  plane waves:     422
 k-point ** :   0.2632 0.2632 0.2632  plane waves:     423
 k-point ** :   0.2368 0.2368 0.2368  plane waves:     423
 k-point ** :   0.2105 0.2105 0.2105  plane waves:     423
 k-point ** :   0.1842 0.1842 0.1842  plane waves:     417
 k-point ** :   0.1579 0.1579 0.1579  plane waves:     414
 k-point ** :   0.1316 0.1316 0.1316  plane waves:     417
 k-point ** :   0.1053 0.1053 0.1053  plane waves:     423
 k-point ** :   0.0789 0.0789 0.0789  plane waves:     417
 k-point ** :   0.0526 0.0526 0.0526  plane waves:     411
 k-point ** :   0.0263 0.0263 0.0263  plane waves:     411
 k-point ** :   0.0000 0.0000 0.0000  plane waves:     411
 k-point ** :   0.0000 0.0000 0.0000  plane waves:     411
 k-point ** :   0.0197 0.0197 0.0395  plane waves:     411
 k-point ** :   0.0395 0.0395 0.0789  plane waves:     415
 k-point ** :   0.0592 0.0592 0.1184  plane waves:     419
 k-point ** :   0.0789 0.0789 0.1579  plane waves:     421
 k-point ** :   0.0987 0.0987 0.1974  plane waves:     423
 k-point ** :   0.1184 0.1184 0.2368  plane waves:     421
 k-point ** :   0.1382 0.1382 0.2763  plane waves:     421
 k-point ** :   0.1579 0.1579 0.3158  plane waves:     417
 k-point ** :   0.1776 0.1776 0.3553  plane waves:     417
 k-point ** :   0.1974 0.1974 0.3947  plane waves:     415
 k-point ** :   0.2171 0.2171 0.4342  plane waves:     415
 k-point ** :   0.2368 0.2368 0.4737  plane waves:     415
 k-point ** :   0.2566 0.2566 0.5132  plane waves:     421
 k-point ** :   0.2763 0.2763 0.5526  plane waves:     421
 k-point ** :   0.2961 0.2961 0.5921  plane waves:     421
 k-point ** :   0.3158 0.3158 0.6316  plane waves:     417
 k-point ** :   0.3355 0.3355 0.6711  plane waves:     417
 k-point ** :   0.3553 0.3553 0.7105  plane waves:     425
 k-point ** :   0.3750 0.3750 0.7500  plane waves:     431

 maximum and minimum number of plane-waves per node :       444      410

 maximum number of plane-waves:       444
 maximum index in each direction:
   IXMAX=    5   IYMAX=    5   IZMAX=    5
   IXMIN=   -5   IYMIN=   -5   IZMIN=   -5

 serial   3D FFT for wavefunctions
 parallel 3D FFT for charge:
    minimum data exchange during FFTs selected (reduces bandwidth)

 initial charge density was supplied:
 number of electron       3.0000000 magnetization
 keeping initial charge density in first step

 Maximum index for augmentation-charges         9405 (set IRDMAX)

 First call to EWALD:  gamma=   0.695
 Maximum number of real-space cells 3x 3x 3
 Maximum number of reciprocal cells 3x 3x 3

--------------------------------------- Iteration      1(   1)  ---------------------------------------

 eigenvalue-minimisations  :  1685
 total energy-change (2. order) :-0.1221165E+01  (-0.7893751E+02)
 number of electron       3.0000000 magnetization
 augmentation part        3.0000000 magnetization

 Free energy of the ion-electron system (eV)
  alpha Z        PSCENC =        -0.15332662
  Ewald energy   TEWEN  =       -73.35670894
  -Hartree energ DENC   =        -0.10652442
  -exchange      EXHF   =         0.00000000
  -V(xc)+E(xc)   XCENC  =       -26.29409879
  PAW double counting   =        35.75777254       -3.72136847
  entropy T*S    EENTRO =        -0.00079016
  eigenvalues    EBANDS =        12.96317933
  atomic energy  EATOM  =        53.69070033
  Solvation  Ediel_sol  =         0.00000000
  free energy    TOTEN  =        -1.22116520 eV

  energy without entropy =       -1.22037505  energy(sigma->0) =       -1.22090182

[...]

--------------------------------------- Iteration      1(   6)  ---------------------------------------

 eigenvalue-minimisations  :  2255
 total energy-change (2. order) :-0.5159379E-08  (-0.5599129E-08)
 number of electron       3.0000000 magnetization
 augmentation part        3.0000000 magnetization

 Free energy of the ion-electron system (eV)
  alpha Z        PSCENC =        -0.15332662
  Ewald energy   TEWEN  =       -73.35670894
  -Hartree energ DENC   =        -0.10652442
  -exchange      EXHF   =         0.00000000
  -V(xc)+E(xc)   XCENC  =       -26.29409879
  PAW double counting   =        35.75777254       -3.72136847
  entropy T*S    EENTRO =        -0.00154724
  eigenvalues    EBANDS =        10.80678404
  atomic energy  EATOM  =        53.69070033
  Solvation  Ediel_sol  =         0.00000000
  free energy    TOTEN  =        -3.37831758 eV

  energy without entropy =       -3.37677034  energy(sigma->0) =       -3.37780183

 average (electrostatic) potential at core
  the test charge radii are     1.0406
  (the norm of the test charge is              1.0000)
       1 -72.3024

 E-fermi :   7.1160     XC(G=0): -10.1853     alpha+bet :-14.7760

 k-point     1 :       0.5000    0.5000    0.5000
  band No.  band energies     occupation
      1       3.3482      2.00000
      2       3.5167      2.00000
      3      19.1863      0.00000
      4      19.1864      0.00000
      5      19.3308      0.00000

[...]

 k-point   160 :       0.3750    0.3750    0.7500
  band No.  band energies     occupation
      1       6.0202      2.00000
      2       6.5591      2.00059
      3       7.4854     -0.02535
      4      14.4092      0.00000
      5      16.0662      0.00000

 soft charge-density along one line, spin component           1
         0         1         2         3         4         5         6         7         8         9
 total charge-density along one line

------------------------ aborting loop because EDIFF is reached ----------------------------------------

  FORCE on cell =-STRESS in cart. coord.  units (eV):
  Direction    XX          YY          ZZ          XY          YZ          ZX
  Alpha Z    -0.15333    -0.15333    -0.15333
  Ewald     -24.45224   -24.45224   -24.45224     0.00000     0.00000    -0.00000
  Hartree     0.04388     0.04388     0.04388     0.00000     0.00000     0.00000
  E(xc)      -8.59915    -8.59915    -8.59915     0.00000     0.00000     0.00000
  Local       0.37582     0.37582     0.37582    -0.00000    -0.00000    -0.00000
  n-local    17.80339    19.25141    17.37907    -0.31713    -0.32216    -0.24027
  augment    -0.90855    -0.90855    -0.90855     0.00000     0.00000     0.00000
  Kinetic    21.91638    13.52952    10.43559     3.98860     4.56937     8.81987
  Fock        0.00000     0.00000     0.00000     0.00000     0.00000     0.00000
  Total      -0.25510    -0.25510    -0.25510     0.00000     0.00000     0.00000
  in kB     -24.61054   -24.61054   -24.61054     0.00000     0.00000     0.00000

 VOLUME and BASIS-vectors are now :
  energy-cutoff  :      500.00
  volume of cell :       16.61
      direct lattice vectors                 reciprocal lattice vectors
     2.025000000  2.025000000  0.000000000     0.246913580  0.246913580 -0.246913580
     0.000000000  2.025000000  2.025000000    -0.246913580  0.246913580  0.246913580
     2.025000000  0.000000000  2.025000000     0.246913580 -0.246913580  0.246913580

  length of vectors
     2.863782464  2.863782464  2.863782464     0.427666866  0.427666866  0.427666866

 FORCES acting on ions
    electron-ion (+dipol)            ewald-force                    non-local-force                 convergence-correction
   -.580E-15 -.102E-14 0.957E-15   -.122E-15 -.249E-16 -.758E-16   0.248E-23 0.827E-23 0.579E-23   0.771E-18 -.320E-17 0.215E-18
   -.580E-15 -.102E-14 0.957E-15   -.122E-15 -.249E-16 -.758E-16   0.248E-23 0.827E-23 0.579E-23   0.771E-18 -.320E-17 0.215E-18

 POSITION                                       TOTAL-FORCE (eV/Angst)
      0.00000      0.00000      0.00000         0.000000      0.000000      0.000000
    total drift:                               -0.000000     -0.000000      0.000000

  FREE ENERGIE OF THE ION-ELECTRON SYSTEM (eV)
  free  energy   TOTEN  =        -3.37831758 eV

  energy  without entropy=       -3.37677034  energy(sigma->0) =       -3.37780183