 vasp.5.4.4.18Apr17-6-g9f103f2a35 (build May 20 2018 16:52:39) complex

 executed on             LinuxIFC date 2022.11.07  01:32:15

 INCAR:
 POTCAR:    PAW_PBE Ni_pv 06Sep2000
 POTCAR:    PAW_PBE O 08Apr2002
 POTCAR:    PAW_PBE Ni_pv 06Sep2000
   VRHFIN =Ni:

   TITEL  = PAW_PBE Ni_pv 06Sep2000
   POMASS =   58.690; ZVAL   =   16.000    mass and valenz
   ENMAX  =  367.986; ENMIN  =  275.989 eV

 POTCAR:    PAW_PBE O 08Apr2002
   VRHFIN =O: s2p4

   TITEL  = PAW_PBE O 08Apr2002
   POMASS =   16.000; ZVAL   =    6.000    mass and valenz
   ENMAX  =  400.000; ENMIN  =  300.000 eV

  PAW_PBE Ni_pv 06Sep2000               :
  PAW_PBE O 08Apr2002                   :

 POSCAR: NiO
  positions in cartesian coordinates
 exchange correlation table for  LEXCH =        8
   RHO(1)=    0.500       N(1)  =     2000
   RHO(2)=  100.500       N(2)  =     4000

 ion  position               nearest neighbor table
   1  0.000  0.000  0.000-   4 2.08   4 2.08   4 2.08   3 2.08   3 2.08   3 2.08
   2  0.500  0.500  0.500-   3 2.08   3 2.08   3 2.08   4 2.08   4 2.08   4 2.08
   3  0.250  0.250  0.250-   1 2.08   1 2.08   1 2.08   2 2.08   2 2.08   2 2.08
   4  0.750  0.750  0.750-   2 2.08   2 2.08   2 2.08   1 2.08   1 2.08   1 2.08

  LATTYP: Found a trigonal (rhomboedric) cell.
 ALAT       =     5.1071861137
 COS(alpha) =     0.8333333333

  Lattice vectors:

 A1 = (   4.1700000000,   2.0850000000,   2.0850000000)
 A2 = (   2.0850000000,   4.1700000000,   2.0850000000)
 A3 = (   2.0850000000,   2.0850000000,   4.1700000000)

Analysis of symmetry for initial positions (statically):
 Subroutine PRICEL returns following result:

  LATTYP: Found a face centered cubic cell.
 ALAT       =     4.1700000000

[...]

   2 primitive cells build up your supercell.

 Routine SETGRP: Setting up the symmetry group for a
 trigonal (rhombohedral) supercell.

 Subroutine GETGRP returns: Found 12 space group operations
 (whereof 12 operations were pure point group operations)
 out of a pool of 12 trial point group operations.

The static configuration has the point symmetry D_3d.

Analysis of symmetry for dynamics (positions and initial velocities):
 Subroutine PRICEL returns following result:

[...]

The dynamic configuration has the point symmetry D_3d.

Analysis of structural, dynamic, and magnetic symmetry:
 Subroutine PRICEL returns following result:

  LATTYP: Found a face centered cubic cell.
 ALAT       =     4.1700000000

  Lattice vectors:

 A1 = (   2.0850000000,   0.0000000000,  -2.0850000000)
 A2 = (   0.0000000000,   2.0850000000,  -2.0850000000)
 A3 = (   2.0850000000,   2.0850000000,   0.0000000000)

   2 primitive cells build up your supercell.

 Routine SETGRP: Setting up the symmetry group for a
 trigonal (rhombohedral) supercell.

 Subroutine GETGRP returns: Found 12 space group operations
 (whereof 12 operations were pure point group operations)
 out of a pool of 12 trial point group operations.

The magnetic configuration has the point symmetry D_3d.

 Subroutine INISYM returns: Found 12 space group operations
 (whereof 12 operations are pure point group operations),
 and found     2 'primitive' translations

 KPOINTS: k-points

Automatic generation of k-mesh.
Space group operators:
 irot       det(A)        alpha          n_x          n_y          n_z        tau_x        tau_y        tau_z
    1     1.000000     0.000000     1.000000     0.000000     0.000000     0.000000     0.000000     0.000000
    2    -1.000000     0.000000     1.000000     0.000000     0.000000     0.000000     0.000000     0.000000
    3     1.000000   180.000000     0.000000     0.707107    -0.707107     0.000000     0.000000     0.000000
    4    -1.000000   180.000000     0.000000     0.707107    -0.707107     0.000000     0.000000     0.000000
    5     1.000000   120.000000    -0.577350    -0.577350    -0.577350     0.000000     0.000000     0.000000
    6    -1.000000   120.000000    -0.577350    -0.577350    -0.577350     0.000000     0.000000     0.000000
    7     1.000000   180.000000     0.707107    -0.707107     0.000000     0.000000     0.000000     0.000000
    8    -1.000000   180.000000     0.707107    -0.707107     0.000000     0.000000     0.000000     0.000000
    9     1.000000   120.000000     0.577350     0.577350     0.577350     0.000000     0.000000     0.000000
   10    -1.000000   120.000000     0.577350     0.577350     0.577350     0.000000     0.000000     0.000000
   11     1.000000   180.000000     0.707107     0.000000    -0.707107     0.000000     0.000000     0.000000
   12    -1.000000   180.000000     0.707107     0.000000    -0.707107     0.000000     0.000000     0.000000

 Subroutine IBZKPT returns following result:

 Found     13 irreducible k-points:

 Following reciprocal coordinates:
            Coordinates               Weight
  0.000000  0.000000  0.000000      1.000000
  0.250000 -0.000000 -0.000000      6.000000
  0.500000 -0.000000 -0.000000      3.000000
  0.250000  0.250000  0.000000      6.000000
  0.500000  0.250000  0.000000     12.000000
 -0.250000  0.250000  0.000000      6.000000
  0.500000  0.500000  0.000000      3.000000
  0.250000  0.250000  0.250000      2.000000
  0.500000  0.250000  0.250000      6.000000
 -0.250000  0.250000  0.250000      6.000000
  0.500000  0.500000  0.250000      6.000000
 -0.250000  0.500000  0.250000      6.000000
  0.500000  0.500000  0.500000      1.000000

 Following cartesian coordinates:
            Coordinates               Weight
  0.000000  0.000000  0.000000      1.000000
  0.375000 -0.125000 -0.125000      6.000000
  0.750000 -0.250000 -0.250000      3.000000
  0.250000  0.250000 -0.250000      6.000000
  0.625000  0.125000 -0.375000     12.000000
 -0.500000  0.500000  0.000000      6.000000
  0.500000  0.500000 -0.500000      3.000000
  0.125000  0.125000  0.125000      2.000000
  0.500000 -0.000000  0.000000      6.000000
 -0.625000  0.375000  0.375000      6.000000
  0.375000  0.375000 -0.125000      6.000000
 -0.750000  0.750000  0.250000      6.000000
  0.250000  0.250000  0.250000      1.000000

 TETIRR: Found     30 inequivalent tetrahedra from      384

 SYSTEM =  "NiO"
 POSCAR =  NiO

 Startparameter for this run:
   NWRITE =      2    write-flag & timer
   PREC   = normal    normal or accurate (medium, high low for compatibility)
   ISTART =      0    job   : 0-new  1-cont  2-samecut
   ICHARG =      2    charge: 1-file 2-atom 10-const
   ISPIN  =      2    spin polarized calculation?
   LNONCOLLINEAR =      F non collinear calculations
   LSORBIT =      F    spin-orbit coupling
   INIWAV =      1    electr: 0-lowe 1-rand  2-diag
   LASPH  =      F    aspherical Exc in radial PAW
   METAGGA=      F    non-selfconsistent MetaGGA calc.

 Electronic Relaxation 1
   ENCUT  =  450.0 eV  33.07 Ry    5.75 a.u.   8.83  8.83  8.83*2*pi/ulx,y,z
   ENINI  =  450.0     initial cutoff
   ENAUG  =  703.4 eV  augmentation charge cutoff
   NELM   =     60;   NELMIN=  6; NELMDL= -5     # of ELM steps
   EDIFF  = 0.1E-04   stopping-criterion for ELM
   LREAL  =      F    real-space projection
   NLSPLINE    = F    spline interpolate recip. space projectors
   LCOMPAT=      F    compatible to vasp.4.4
   GGA_COMPAT  = T    GGA compatible to vasp.4.4-vasp.4.6
   LMAXPAW     = -100 max onsite density
   LMAXMIX     =    4 max onsite mixed and CHGCAR
   VOSKOWN=      0    Vosko Wilk Nusair interpolation
   ROPT   =    0.00000   0.00000
 Ionic relaxation
   EDIFFG = 0.1E-03   stopping-criterion for IOM
   NSW    =      0    number of steps for IOM
   NBLOCK =      1;   KBLOCK =      1    inner block; outer block
   IBRION =     -1    ionic relax: 0-MD 1-quasi-New 2-CG
   NFREE  =      0    steps in history (QN), initial steepest desc. (CG)
   ISIF   =      2    stress and relaxation
   IWAVPR =     10    prediction:  0-non 1-charg 2-wave 3-comb
   ISYM   =      2    0-nonsym 1-usesym 2-fastsym
   LCORR  =      T    Harris-Foulkes like correction to forces

   POTIM  = 0.5000    time-step for ionic-motion
   TEIN   =    0.0    initial temperature
   TEBEG  =    0.0;   TEEND  =   0.0 temperature during run
   SMASS  =  -3.00    Nose mass-parameter (am)
   estimated Nose-frequenzy (Omega)   =  0.10E-29 period in steps =****** mass=  -0.596E-27a.u.
   SCALEE = 1.0000    scale energy and forces
   NPACO  =    256;   APACO  = 16.0  distance and # of slots for P.C.
   PSTRESS=    0.0 pullay stress

  Mass of Ions in am
   POMASS =  58.69 16.00
  Ionic Valenz
   ZVAL   =  16.00  6.00
  Atomic Wigner-Seitz radii
  virtual crystal weights
   VCA    =   1.00  1.00
   NELECT =      44.0000    total number of electrons
   NUPDOWN=      -1.0000    fix difference up-down

 DOS related values:
   EMIN   =  10.00;   EMAX   =-10.00  energy-range for DOS
   EFERMI =   0.00
   ISMEAR =    -5;   SIGMA  =   0.20  broadening in eV -4-tet -1-fermi 0-gaus

 Electronic relaxation 2 (details)
   IALGO  =     38    algorithm
   LDIAG  =      T    sub-space diagonalisation (order eigenvalues)
   LSUBROT=      F    optimize rotation matrix (better conditioning)
   TURBO    =      0    0=normal 1=particle mesh
   IRESTART =      0    0=no restart 2=restart with 2 vectors
   NREBOOT  =      0    no. of reboots
   NMIN     =      0    reboot dimension
   EREF     =   0.00    reference energy to select bands
   IMIX   =      4    mixing-type and parameters
     AMIX     =   0.20;   BMIX     =  0.00
     AMIX_MAG =   0.80;   BMIX_MAG =  0.00
     AMIN     =   0.10
     WC   =   100.;   INIMIX=   1;  MIXPRE=   1;  MAXMIX= -45

 Intra band minimization:
   WEIMIN = 0.0000     energy-eigenvalue tresh-hold
   EBREAK =  0.96E-07  absolut break condition
   DEPER  =   0.30     relativ break condition

   TIME   =   0.40     timestep for ELM

  volume/ion in A,a.u.               =       9.06        61.17
  Fermi-wavevector in a.u.,A,eV,Ry     =   1.746223  3.299883 41.488167  3.049294
  Thomas-Fermi vector in A             =   2.817758

 Write flags
   LWAVE        =      T    write WAVECAR
   LDOWNSAMPLE  =      F    k-point downsampling of WAVECAR
   LCHARG       =      T    write CHGCAR
   LVTOT        =      F    write LOCPOT, total local potential
   LVHAR        =      F    write LOCPOT, Hartree potential only
   LELF         =      F    write electronic localiz. function (ELF)
   LORBIT       =     11    0 simple, 1 ext, 2 COOP (PROOUT), +10 PAW based schemes

 Dipole corrections
   LMONO  =      F    monopole corrections only (constant potential shift)
   LDIPOL =      F    correct potential (dipole corrections)
   IDIPOL =      0    1-x, 2-y, 3-z, 4-all directions
   EPSILON=  1.0000000 bulk dielectric constant

 LDA+U is selected, type is set to LDAUTYPE =  2
   angular momentum for each species LDAUL =     2   -1
   U (eV)           for each species LDAUU =   5.0  0.0
   J (eV)           for each species LDAUJ =   0.0  0.0
 Exchange correlation treatment:
   GGA     =    --    GGA type
   VOSKOWN=      0    Vosko Wilk Nusair interpolation
   LHFCALC =     F    Hartree Fock is set to
   LHFONE  =     F    Hartree Fock one center treatment
   AEXX    =    0.0000 exact exchange contribution

 Linear response parameters
   LEPSILON=     F    determine dielectric tensor
[...]
  o =  0.9237  v =  0.0000  0.0000  0.0000  0.0000  0.0000  0.0000  1.0000  0.0000  0.0000  0.0000      0.0000  0.0000  0.0000  0.0000  0.0000  0.0000  0.0000  0.0000  0.0000  0.0000
  o =  0.9237  v =  0.0000  0.0000  0.0000  0.0000  0.0000  0.0000  0.0000  1.0000  0.0000  0.0000      0.0000  0.0000  0.0000  0.0000  0.0000  0.0000  0.0000  0.0000  0.0000  0.0000
  o =  0.9237  v =  0.0000  0.0000  0.0000  0.0000  0.0000  0.0000  0.0000  0.0000  1.0000  0.0000      0.0000  0.0000  0.0000  0.0000  0.0000  0.0000  0.0000  0.0000  0.0000  0.0000
  o =  0.9237  v =  0.0000  0.0000  0.0000  0.0000  0.0000  0.0000  0.0000  0.0000  0.0000  1.0000      0.0000  0.0000  0.0000  0.0000  0.0000  0.0000  0.0000  0.0000  0.0000  0.0000
 BZINTS: Fermi energy: 24.027403; 44.000000 electrons
         Band energy: -85.298934;  BLOECHL correction: -0.172135

 eigenvalue-minimisations  :  1568
 total energy-change (2. order) : 0.5014781E+03  (-0.2778524E+04)
 number of electron      44.0000000 magnetization       0.0000000
 augmentation part       44.0000000 magnetization       0.0000000

 Free energy of the ion-electron system (eV)
  alpha Z        PSCENC =       311.81991378
  Ewald energy   TEWEN  =     -5345.56183988
  -Hartree energ DENC   =     -2231.97249407
  -exchange      EXHF   =         0.00000000
  -V(xc)+E(xc)   XCENC  =       234.32277935
  PAW double counting   =      6520.12304331    -6768.69497847
  entropy T*S    EENTRO =         0.00000000
  eigenvalues    EBANDS =       -85.29893434
  atomic energy  EATOM  =      7866.74061565
  Solvation  Ediel_sol  =         0.00000000
  free energy    TOTEN  =       501.47810533 eV

  energy without entropy =      501.47810533  energy(sigma->0) =      501.47810533

[...]

 BZINTS: Fermi energy:  9.088674; 44.000000 electrons
         Band energy:-572.211696;  BLOECHL correction: -0.076408

 eigenvalue-minimisations  :  1408
 total energy-change (2. order) :-0.4869128E+03  (-0.4773535E+03)
 number of electron      44.0000000 magnetization       0.0000000
 augmentation part       44.0000000 magnetization       0.0000000

[...]

 Broyden mixing:
  rms(total) = 0.20897E+01    rms(broyden)= 0.20746E+01
  rms(prec ) = 0.32941E+01
  weight for this iteration     100.00

[...]

  o =  0.4134  v = -0.0000  0.0152  0.0026 -0.0152 -0.9998  0.0000  0.0000  0.0000  0.0000  0.0000      0.0000 -0.0000 -0.0000  0.0000  0.0024  0.0000  0.0000  0.0000  0.0000  0.0000
  o =  0.4134  v = -0.0175  0.0087  0.9998  0.0088  0.0026  0.0000  0.0000  0.0000  0.0000  0.0000      0.0000  0.0000 -0.0002 -0.0000 -0.0000  0.0000  0.0000  0.0000  0.0000  0.0000
  o =  0.8071  v =  0.5774  0.5774  0.0000  0.5774 -0.0000  0.0000  0.0000  0.0000  0.0000  0.0000      0.0000  0.0000 -0.0000  0.0000 -0.0000  0.0000  0.0000  0.0000  0.0000  0.0000
  o =  0.8077  v =  0.1799  0.5996  0.0047 -0.7795  0.0209  0.0000  0.0000  0.0000  0.0000  0.0000      0.0000  0.0003 -0.0000 -0.0003  0.0000  0.0000  0.0000  0.0000  0.0000  0.0000
  o =  0.8077  v =  0.7962 -0.5539  0.0209 -0.2423 -0.0047  0.0000  0.0000  0.0000  0.0000  0.0000      0.0000 -0.0001 -0.0000  0.0001 -0.0000  0.0000  0.0000  0.0000  0.0000  0.0000
  o =  0.8737  v =  0.0000  0.0000  0.0000  0.0000  0.0000  0.2370  0.5580  0.0062 -0.7950  0.0205      0.0000  0.0000  0.0000  0.0000  0.0000  0.0000 -0.0000 -0.0000  0.0000 -0.0000
  o =  0.8737  v =  0.0000  0.0000  0.0000  0.0000  0.0000 -0.7811  0.5958 -0.0205  0.1853  0.0062      0.0000  0.0000  0.0000  0.0000  0.0000  0.0000 -0.0000  0.0000  0.0000 -0.0000
  o =  0.8742  v =  0.0000  0.0000  0.0000  0.0000  0.0000 -0.5774 -0.5774  0.0000 -0.5774 -0.0000      0.0000  0.0000  0.0000  0.0000  0.0000  0.0000 -0.0000 -0.0000 -0.0000  0.0000
  o =  1.1159  v =  0.0000  0.0000  0.0000  0.0000  0.0000  0.0175 -0.0087 -0.9998 -0.0087  0.0000      0.0000  0.0000  0.0000  0.0000  0.0000  0.0000  0.0000  0.0003  0.0000 -0.0000
  o =  1.1159  v =  0.0000  0.0000  0.0000  0.0000  0.0000  0.0000  0.0151 -0.0000 -0.0151 -0.9997      0.0000  0.0000  0.0000  0.0000  0.0000  0.0000  0.0001 -0.0000 -0.0001 -0.0092
 BZINTS: Fermi energy:  5.780672; 44.000000 electrons
         Band energy:-647.985843;  BLOECHL correction:  0.000000

[...]

 eigenvalues of (default mixing * dielectric matrix)
  average eigenvalue GAMMA=   0.8471
  0.8471

[...]

 eigenvalue-minimisations  :  1552
 total energy-change (2. order) :-0.1081754E-03  (-0.2391053E-04)
 number of electron      44.0000076 magnetization      -0.0000000
 augmentation part       20.2979535 magnetization      -0.0000000

 Broyden mixing:
  rms(total) = 0.43981E-02    rms(broyden)= 0.43963E-02
  rms(prec ) = 0.62688E-02
  weight for this iteration     100.00

 eigenvalues of (default mixing * dielectric matrix)
  average eigenvalue GAMMA=   2.0009
  5.3508  4.6746  1.4928  0.9944  0.9944  1.2684  1.2684  1.1523  0.8125

[...]

--------------------------------------- Iteration      1(  15)  ---------------------------------------

atom =   1  type =  1  l = 2

[...]

  o =  0.1480  v =  0.0000  0.0000  0.0000  0.0000  0.0000 -0.0006  0.0003  0.9992  0.0003  0.0387      0.0000  0.0000  0.0000  0.0000  0.0000  0.0000  0.0000 -0.0008 -0.0000 -0.0000
  o =  0.1480  v =  0.0000  0.0000  0.0000  0.0000  0.0000 -0.0000  0.0005  0.0387 -0.0005 -0.9992      0.0000  0.0000  0.0000  0.0000  0.0000  0.0000 -0.0000 -0.0000  0.0000  0.0008
  o =  0.9470  v =  0.0000  0.0000  0.0000  0.0000  0.0000  0.1516 -0.7706  0.0001  0.6190 -0.0007      0.0000  0.0000  0.0000  0.0000  0.0000  0.0000 -0.0006 -0.0000  0.0006 -0.0000
  o =  0.9470  v =  0.0000  0.0000  0.0000  0.0000  0.0000  0.8023 -0.2699  0.0007 -0.5324  0.0001      0.0000  0.0000  0.0000  0.0000  0.0000  0.0000  0.0001 -0.0000 -0.0001  0.0000
  o =  0.9470  v =  0.0000  0.0000  0.0000  0.0000  0.0000 -0.5774 -0.5774 -0.0000 -0.5774  0.0000      0.0000  0.0000  0.0000  0.0000  0.0000  0.0000  0.0000  0.0000 -0.0000 -0.0000
  o =  0.9523  v = -0.1521  0.7708 -0.0001 -0.6187  0.0006  0.0000  0.0000  0.0000  0.0000  0.0000      0.0000 -0.0006 -0.0000  0.0006  0.0000  0.0000  0.0000  0.0000  0.0000  0.0000
  o =  0.9523  v = -0.8022  0.2693 -0.0006  0.5329 -0.0001  0.0000  0.0000  0.0000  0.0000  0.0000      0.0000  0.0001 -0.0000 -0.0001 -0.0000  0.0000  0.0000  0.0000  0.0000  0.0000
  o =  0.9524  v =  0.5774  0.5774  0.0000  0.5774 -0.0000  0.0000  0.0000  0.0000  0.0000  0.0000      0.0000  0.0000  0.0000  0.0000 -0.0000  0.0000  0.0000  0.0000  0.0000  0.0000
  o =  0.9786  v = -0.0005  0.0003  1.0000  0.0003  0.0000  0.0000  0.0000  0.0000  0.0000  0.0000      0.0000  0.0000  0.0022 -0.0000 -0.0000  0.0000  0.0000  0.0000  0.0000  0.0000
  o =  0.9786  v =  0.0000  0.0004  0.0000 -0.0004 -1.0000  0.0000  0.0000  0.0000  0.0000  0.0000      0.0000 -0.0000  0.0000  0.0000 -0.0022  0.0000  0.0000  0.0000  0.0000  0.0000
atom =   2  type =  1  l = 2

 onsite density matrix

[...]

  0.9523  0.0000 -0.0000  0.0000 -0.0000     -0.0000 -0.0000 -0.0000  0.0000  0.0000
  0.0000  0.9523  0.0000  0.0000 -0.0000      0.0000 -0.0000  0.0000 -0.0000 -0.0000
 -0.0000  0.0000  0.9786  0.0000  0.0000      0.0000 -0.0000  0.0000 -0.0000  0.0000
  0.0000  0.0000  0.0000  0.9523  0.0000     -0.0000  0.0000  0.0000 -0.0000  0.0000
 -0.0000 -0.0000  0.0000  0.0000  0.9786     -0.0000  0.0000 -0.0000 -0.0000  0.0000

 occupancies and eigenvectors

  o =  0.1480  v =  0.0000 -0.0005 -0.0486  0.0005  0.9988  0.0000  0.0000  0.0000  0.0000  0.0000      0.0000  0.0000  0.0000 -0.0000 -0.0008  0.0000  0.0000  0.0000  0.0000  0.0000
  o =  0.1480  v = -0.0006  0.0003  0.9988  0.0003  0.0486  0.0000  0.0000  0.0000  0.0000  0.0000      0.0000  0.0000 -0.0008 -0.0000 -0.0000  0.0000  0.0000  0.0000  0.0000  0.0000
  o =  0.9470  v = -0.1389  0.7662 -0.0001 -0.6274  0.0007  0.0000  0.0000  0.0000  0.0000  0.0000      0.0000  0.0002  0.0000 -0.0002 -0.0000  0.0000  0.0000  0.0000  0.0000  0.0000
  o =  0.9470  v =  0.8046 -0.2820  0.0007 -0.5226  0.0001  0.0000  0.0000  0.0000  0.0000  0.0000      0.0000  0.0000 -0.0000 -0.0000 -0.0000  0.0000  0.0000  0.0000  0.0000  0.0000
  o =  0.9470  v = -0.5774 -0.5774 -0.0000 -0.5774  0.0000  0.0000  0.0000  0.0000  0.0000  0.0000      0.0000  0.0000  0.0000 -0.0000 -0.0000  0.0000  0.0000  0.0000  0.0000  0.0000
  o =  0.9523  v =  0.0000  0.0000  0.0000  0.0000  0.0000 -0.8150  0.4508 -0.0006  0.3642  0.0000      0.0000  0.0000  0.0000  0.0000  0.0000  0.0000 -0.0000 -0.0000  0.0000  0.0000
  o =  0.9523  v =  0.0000  0.0000  0.0000  0.0000  0.0000  0.0500  0.6808  0.0000 -0.7308  0.0006      0.0000  0.0000  0.0000  0.0000  0.0000  0.0000 -0.0004  0.0000  0.0004  0.0000
  o =  0.9524  v =  0.0000  0.0000  0.0000  0.0000  0.0000 -0.5774 -0.5774  0.0000 -0.5774  0.0000      0.0000  0.0000  0.0000  0.0000  0.0000  0.0000 -0.0000  0.0000  0.0000  0.0000
  o =  0.9786  v =  0.0000  0.0000  0.0000  0.0000  0.0000  0.0005 -0.0003 -1.0000 -0.0003 -0.0000      0.0000  0.0000  0.0000  0.0000  0.0000  0.0000  0.0000 -0.0022 -0.0000  0.0000
  o =  0.9786  v =  0.0000  0.0000  0.0000  0.0000  0.0000  0.0000  0.0004  0.0000 -0.0004 -1.0000      0.0000  0.0000  0.0000  0.0000  0.0000  0.0000  0.0000  0.0000 -0.0000 -0.0022
 BZINTS: Fermi energy:  5.811465; 44.000000 electrons
         Band energy:-657.547306;  BLOECHL correction:  0.000000

 eigenvalue-minimisations  :  1126
 total energy-change (2. order) : 0.3141940E-05  (-0.5310113E-05)
 number of electron      44.0000076 magnetization      -0.0000000
 augmentation part       20.2979535 magnetization      -0.0000000

 Free energy of the ion-electron system (eV)
  alpha Z        PSCENC =       311.81991378
  Ewald energy   TEWEN  =     -5345.56183988
  -Hartree energ DENC   =     -2176.48877687
  -exchange      EXHF   =         0.00000000
  -V(xc)+E(xc)   XCENC  =       233.98730128
  PAW double counting   =      7229.27183054    -7481.75933613
  entropy T*S    EENTRO =         0.00000000
  eigenvalues    EBANDS =      -657.54730605
  atomic energy  EATOM  =      7866.74061565
  Solvation  Ediel_sol  =         0.00000000
  free energy    TOTEN  =       -19.53759768 eV

  energy without entropy =      -19.53759768  energy(sigma->0) =      -19.53759768

 average (electrostatic) potential at core
  the test charge radii are     0.8614  0.7215
  (the norm of the test charge is              1.0000)
       1 -80.6832       2 -80.6832       3 -68.5399       4 -68.5399

 E-fermi :   5.8115     XC(G=0): -12.9838     alpha+bet :-13.0529

[...]

 k-point     1 :       0.0000    0.0000    0.0000
  band No.  band energies     occupation
      1     -58.0766      1.00000
      2     -58.0602      1.00000
      3     -58.0602      1.00000
      4     -56.0254      1.00000
      5     -56.0097      1.00000
      6     -56.0097      1.00000
      7     -12.9209      1.00000
      8     -11.4590      1.00000
      9      -1.2620      1.00000
     10       0.2953      1.00000
     11       0.2953      1.00000
     12       2.2721      1.00000
     13       2.2721      1.00000
     14       2.4914      1.00000
     15       3.3558      1.00000
     16       3.3558      1.00000
     17       4.3616      1.00000
     18       4.5585      1.00000
     19       4.5585      1.00000
     20       4.5614      1.00000
     21       4.8892      1.00000
     22       4.8892      1.00000
     23       8.8707      0.00000
     24       9.5545      0.00000
     25       9.5545      0.00000
     26      12.7913      0.00000

[...]

 spin component 2

[...]

 k-point    13 :       0.5000    0.5000    0.5000
  band No.  band energies     occupation
      1     -58.0765      1.00000
      2     -58.0602      1.00000
      3     -58.0602      1.00000
      4     -56.0255      1.00000
      5     -56.0097      1.00000
      6     -56.0097      1.00000
      7     -12.2625      1.00000
      8     -12.2527      1.00000
      9       0.4374      1.00000
     10       0.4374      1.00000
     11       0.5470      1.00000
     12       0.8818      1.00000
     13       2.3269      1.00000
     14       2.3269      1.00000
     15       2.8411      1.00000
     16       2.8411      1.00000
     17       3.4858      1.00000
     18       4.2410      1.00000
     19       4.2410      1.00000
     20       4.2675      1.00000
     21       5.6916      1.00000
     22       5.6916      1.00000
     23       9.3207      0.00000
     24       9.3207      0.00000
     25      11.5669      0.00000
     26      11.7024      0.00000

 soft charge-density along one line, spin component           1
         0         1         2         3         4         5         6         7         8         9
 total charge-density along one line

 soft charge-density along one line, spin component           2
         0         1         2         3         4         5         6         7         8         9
 total charge-density along one line

------------------------ aborting loop because EDIFF is reached ----------------------------------------

 total charge

# of ion       s       p       d       tot
    1        0.214   6.184   7.926  14.324
    2        0.214   6.184   7.926  14.324
    3        1.562   3.475   0.000   5.037
    4        1.562   3.475   0.000   5.037
tot          3.550  19.318  15.852  38.720

 magnetization (x)

[...]

  FORCE on cell =-STRESS in cart. coord.  units (eV):
  Direction    XX          YY          ZZ          XY          YZ          ZX
  Alpha Z   311.81991   311.81991   311.81991
  Ewald   -1781.85627 -1781.85627 -1781.85627     0.00000     0.00000     0.00000
  Hartree   725.50964   725.50964   725.50964    -0.01369    -0.01369    -0.01369
  E(xc)    -297.86692  -297.86692  -297.86692    -0.00053    -0.00053    -0.00053
  Local     190.20560   190.20560   190.20560     0.00011     0.00011     0.00011
  n-local  -227.31617  -229.93582  -228.34842     0.10829     0.63463    -0.72005
  augment   370.83447   370.83447   370.83447    -0.01430    -0.01430    -0.01430
  Kinetic   708.09522   714.04192   710.63870    -0.47631    -0.80450     1.27111
  Fock        0.00000     0.00000     0.00000     0.00000     0.00000     0.00000
  Total       1.03825     1.03825     1.03825    -0.04415    -0.04415    -0.04415
  in kB      45.88101    45.88101    45.88101    -1.95110    -1.95110    -1.95110

 VOLUME and BASIS-vectors are now :
  energy-cutoff  :      450.00
  volume of cell :       36.26
      direct lattice vectors                 reciprocal lattice vectors
     4.170000000  2.085000000  2.085000000     0.359712230 -0.119904077 -0.119904077
     2.085000000  4.170000000  2.085000000    -0.119904077  0.359712230 -0.119904077
     2.085000000  2.085000000  4.170000000    -0.119904077 -0.119904077  0.359712230

  length of vectors
     5.107186114  5.107186114  5.107186114     0.397676833  0.397676833  0.397676833

 FORCES acting on ions
    electron-ion (+dipol)            ewald-force                    non-local-force                 convergence-correction
   -.198E-12 -.189E-12 -.210E-12   -.227E-12 -.853E-13 -.114E-12   0.529E-22 -.106E-21 -.106E-21   -.906E-13 -.888E-13 -.773E-13
   0.451E-11 0.714E-11 0.710E-11   -.284E-13 0.853E-13 0.568E-13   -.529E-22 0.265E-21 0.000E+00   0.550E-14 -.162E-12 -.124E-12
   -.120E-11 0.105E-11 0.103E-11   0.996E-13 -.131E-13 0.169E-13   0.119E-21 0.132E-22 0.794E-22   -.600E-13 -.691E-13 -.634E-13
   0.428E-11 -.280E-11 -.280E-11   0.127E-12 0.134E-13 0.426E-13   0.728E-22 -.199E-22 0.000E+00   0.107E-12 0.945E-13 0.892E-13
   0.740E-11 0.520E-11 0.512E-11   -.293E-13 0.280E-15 0.262E-14   0.192E-21 0.152E-21 -.265E-22   -.379E-13 -.226E-12 -.176E-12

 POSITION                                       TOTAL-FORCE (eV/Angst)
      0.00000      0.00000      0.00000         0.000000     -0.000000      0.000000
      4.17000      4.17000      4.17000        -0.000000      0.000000      0.000000
      2.08500      2.08500      2.08500         0.000000     -0.000000     -0.000000
      6.25500      6.25500      6.25500        -0.000000      0.000000      0.000000
    total drift:                                0.000000      0.000000      0.000000

  FREE ENERGIE OF THE ION-ELECTRON SYSTEM (eV)
  free  energy   TOTEN  =       -19.53759768 eV

  energy  without entropy=      -19.53759768  energy(sigma->0) =      -19.53759768

 writing wavefunctions

 total charge

[...]

 magnetization (x)

# of ion       s       p       d       tot
    1       -0.001  -0.003   1.677   1.672
    2        0.001   0.003  -1.677  -1.672
    3        0.000   0.000   0.000   0.000
    4       -0.000   0.000   0.000   0.000
tot         -0.000   0.000   0.000   0.000

 BZINTS: Fermi energy:  5.811465; 44.000000 electrons
         Band energy:-657.547306;  BLOECHL correction:  0.000000