 vasp.5.3.5 31Mar14 (build Dec 14 2018 19:18:10) complex

 INCAR:
 POTCAR:    PAW Si
 POTCAR:    PAW Si
   VRHFIN =Si: s2p2

   TITEL  = PAW Si
   POMASS =   28.085; ZVAL   =    4.000    mass and valenz
   ENMAX  =  245.435; ENMIN  =  184.076 eV
   QCUT   =   -4.247; QGAM   =    8.494    optimization parameters

   Description
     l     E      TYP  RCUT    TYP  RCUT
     0   .000     23  1.900
     0   .000     23  1.900
     1   .000     23  1.900
     1   .000     23  1.900
     2   .000      7  1.900

  PAW Si                                :

 POSCAR: Si diamond structure
  positions in direct lattice
  velocities in cartesian coordinates
 exchange correlation table for  LEXCH =        7
   RHO(1)=    0.500       N(1)  =     2000
   RHO(2)=  100.500       N(2)  =     4000

 ion  position               nearest neighbor table
   1  0.000  0.000  0.000-   2 2.35   2 2.35   2 2.35   2 2.35
   2  0.250  0.250  0.250-   1 2.35   1 2.35   1 2.35   1 2.35

  LATTYP: Found a face centered cubic cell.
 ALAT       =     5.4300000000

  Lattice vectors:

 A1 = (   2.7150000000,   2.7150000000,   0.0000000000)
 A2 = (   0.0000000000,   2.7150000000,   2.7150000000)
 A3 = (   2.7150000000,   0.0000000000,   2.7150000000)

Analysis of symmetry for initial positions (statically):
 Subroutine PRICEL returns:
 Original cell was already a primitive cell.

 Routine SETGRP: Setting up the symmetry group for a
 face centered cubic supercell.

 Subroutine GETGRP returns: Found 48 space group operations
 (whereof 24 operations were pure point group operations)
 out of a pool of 48 trial point group operations.

The static configuration has the point symmetry T_d .
 The point group associated with its full space group is O_h .

Analysis of symmetry for dynamics (positions and initial velocities):
 Subroutine PRICEL returns:
 Original cell was already a primitive cell.

 Routine SETGRP: Setting up the symmetry group for a
 face centered cubic supercell.

 Subroutine GETGRP returns: Found 48 space group operations
 (whereof 24 operations were pure point group operations)
 out of a pool of 48 trial point group operations.

The dynamic configuration has the point symmetry T_d .
 The point group associated with its full space group is O_h .

 KPOINTS: K-Path for diamond Si.
  interpolating k-points between supplied coordinates
  k-points in reciprocal lattice
Space group operators:
 irot       det(A)        alpha          n_x          n_y          n_z        tau_x        tau_y        tau_z
    1     1.000000     0.000001     1.000000     0.000000     0.000000     0.000000     0.000000     0.000000
    2     1.000000   120.000000    -0.577350    -0.577350    -0.577350     0.000000     0.000000     0.000000
    3     1.000000   120.000000     0.577350     0.577350     0.577350     0.000000     0.000000     0.000000
    4    -1.000000    90.000000     0.000000    -1.000000     0.000000     0.000000     0.000000     0.000000
    5    -1.000000   180.000000     0.707107     0.707107     0.000000     0.000000     0.000000     0.000000
    6    -1.000000    90.000000     1.000000     0.000000     0.000000     0.000000     0.000000     0.000000
    7     1.000000   180.000000     0.000000     1.000000     0.000000     0.000000     0.000000     0.000000
    8     1.000000   120.000000     0.577350     0.577350    -0.577350     0.000000     0.000000     0.000000
    9     1.000000   120.000000     0.577350    -0.577350    -0.577350     0.000000     0.000000     0.000000
   10    -1.000000    90.000000     0.000000     1.000000     0.000000     0.000000     0.000000     0.000000
   11    -1.000000    90.000000     0.000000     0.000000    -1.000000     0.000000     0.000000     0.000000
   12    -1.000000   180.000000     0.000000     0.707107     0.707107     0.000000     0.000000     0.000000
   13     1.000000   120.000000    -0.577350     0.577350     0.577350     0.000000     0.000000     0.000000
   14     1.000000   120.000000    -0.577350     0.577350    -0.577350     0.000000     0.000000     0.000000
   15     1.000000   180.000000     0.000000     0.000000     1.000000     0.000000     0.000000     0.000000
   16    -1.000000    90.000000    -1.000000     0.000000     0.000000     0.000000     0.000000     0.000000
   17    -1.000000   180.000000     0.707107     0.000000     0.707107     0.000000     0.000000     0.000000
   18    -1.000000    90.000000     0.000000     0.000000     1.000000     0.000000     0.000000     0.000000
   19     1.000000   120.000000    -0.577350    -0.577350     0.577350     0.000000     0.000000     0.000000
   20     1.000000   180.000000     1.000000     0.000000     0.000000     0.000000     0.000000     0.000000
   21     1.000000   120.000000     0.577350    -0.577350     0.577350     0.000000     0.000000     0.000000
   22    -1.000000   180.000000     0.707107    -0.707107     0.000000     0.000000     0.000000     0.000000
   23    -1.000000   180.000000     0.707107     0.000000    -0.707107     0.000000     0.000000     0.000000
   24    -1.000000   180.000000     0.000000    -0.707107     0.707107     0.000000     0.000000     0.000000
   25    -1.000000     0.000001     1.000000     0.000000     0.000000     0.250000     0.250000     0.250000
   26    -1.000000   120.000000    -0.577350    -0.577350    -0.577350     0.250000     0.250000     0.250000
   27    -1.000000   120.000000     0.577350     0.577350     0.577350     0.250000     0.250000     0.250000
   28     1.000000    90.000000     0.000000    -1.000000     0.000000     0.250000     0.250000     0.250000
   29     1.000000   180.000000     0.707107     0.707107     0.000000     0.250000     0.250000     0.250000
   30     1.000000    90.000000     1.000000     0.000000     0.000000     0.250000     0.250000     0.250000
   31    -1.000000   180.000000     0.000000     1.000000     0.000000     0.250000     0.250000     0.250000
   32    -1.000000   120.000000     0.577350     0.577350    -0.577350     0.250000     0.250000     0.250000
   33    -1.000000   120.000000     0.577350    -0.577350    -0.577350     0.250000     0.250000     0.250000
   34     1.000000    90.000000     0.000000     1.000000     0.000000     0.250000     0.250000     0.250000
   35     1.000000    90.000000     0.000000     0.000000    -1.000000     0.250000     0.250000     0.250000
   36     1.000000   180.000000     0.000000     0.707107     0.707107     0.250000     0.250000     0.250000
   37    -1.000000   120.000000    -0.577350     0.577350     0.577350     0.250000     0.250000     0.250000
   38    -1.000000   120.000000    -0.577350     0.577350    -0.577350     0.250000     0.250000     0.250000
   39    -1.000000   180.000000     0.000000     0.000000     1.000000     0.250000     0.250000     0.250000
   40     1.000000    90.000000    -1.000000     0.000000     0.000000     0.250000     0.250000     0.250000
   41     1.000000   180.000000     0.707107     0.000000     0.707107     0.250000     0.250000     0.250000
   42     1.000000    90.000000     0.000000     0.000000     1.000000     0.250000     0.250000     0.250000
   43    -1.000000   120.000000    -0.577350    -0.577350     0.577350     0.250000     0.250000     0.250000
   44    -1.000000   180.000000     1.000000     0.000000     0.000000     0.250000     0.250000     0.250000
   45    -1.000000   120.000000     0.577350    -0.577350     0.577350     0.250000     0.250000     0.250000
   46     1.000000   180.000000     0.707107    -0.707107     0.000000     0.250000     0.250000     0.250000
   47     1.000000   180.000000     0.707107     0.000000    -0.707107     0.250000     0.250000     0.250000
   48     1.000000   180.000000     0.000000    -0.707107     0.707107     0.250000     0.250000     0.250000

 I would recommend the setting:
   dimension x,y,z NGX =    15 NGY =   15 NGZ =   15
 SYSTEM =  Si
 POSCAR =  Si diamond structure

 Startparameter for this run:
   NWRITE =      2    write-flag & timer
   PREC   = normal    normal or accurate (medium, high low for compatibility)
   ISTART =      0    job   : 0-new  1-cont  2-samecut
   ICHARG =     11    charge: 1-file 2-atom 10-const
   ISPIN  =      1    spin polarized calculation?
   LNONCOLLINEAR =      F non collinear calculations
   LSORBIT =      F    spin-orbit coupling
   INIWAV =      1    electr: 0-lowe 1-rand  2-diag
   LASPH  =      F    aspherical Exc in radial PAW
   METAGGA=      F    non-selfconsistent MetaGGA calc.

 Electronic Relaxation 1
   ENCUT  =  245.4 eV  18.04 Ry    4.25 a.u.   4.90  4.90  4.90*2*pi/ulx,y,z
   ENINI  =  245.4     initial cutoff
   ENAUG  =  322.1 eV  augmentation charge cutoff
   NELM   =     60;   NELMIN=  2; NELMDL=  0     # of ELM steps
   EDIFF  = 0.1E-03   stopping-criterion for ELM
   LREAL  =      F    real-space projection
   NLSPLINE    = F    spline interpolate recip. space projectors
   LCOMPAT=      F    compatible to vasp.4.4
   GGA_COMPAT  = T    GGA compatible to vasp.4.4-vasp.4.6
   LMAXPAW     = -100 max onsite density
   LMAXMIX     =    2 max onsite mixed and CHGCAR
   VOSKOWN=      0    Vosko Wilk Nusair interpolation
   ROPT   =    0.00000
 Ionic relaxation
   EDIFFG = 0.1E-02   stopping-criterion for IOM
   NSW    =      0    number of steps for IOM
   NBLOCK =      1;   KBLOCK =      1    inner block; outer block
   IBRION =     -1    ionic relax: 0-MD 1-quasi-New 2-CG
   NFREE  =      0    steps in history (QN), initial steepest desc. (CG)
   ISIF   =      2    stress and relaxation
   IWAVPR =      0    prediction:  0-non 1-charg 2-wave 3-comb
   ISYM   =      2    0-nonsym 1-usesym 2-fastsym
   LCORR  =      T    Harris-Foulkes like correction to forces

   POTIM  = 0.5000    time-step for ionic-motion
   TEIN   =    0.0    initial temperature
   TEBEG  =    0.0;   TEEND  =   0.0 temperature during run
   SMASS  =  -3.00    Nose mass-parameter (am)
   estimated Nose-frequenzy (Omega)   =  0.10E-29 period in steps =****** mass=  -0.337E-27a.u.
   SCALEE = 1.0000    scale energy and forces
   NPACO  =    256;   APACO  = 16.0  distance and # of slots for P.C.
   PSTRESS=    0.0 pullay stress

  Mass of Ions in am
   POMASS =  28.09
  Ionic Valenz
   ZVAL   =   4.00
  Atomic Wigner-Seitz radii
  virtual crystal weights
   VCA    =   1.00
   NELECT =       8.0000    total number of electrons
   NUPDOWN=      -1.0000    fix difference up-down

 DOS related values:
   EMIN   =  10.00;   EMAX   =-10.00  energy-range for DOS
   EFERMI =   0.00
   ISMEAR =     0;   SIGMA  =   0.20  broadening in eV -4-tet -1-fermi 0-gaus

 Electronic relaxation 2 (details)
   IALGO  =     38    algorithm
   LDIAG  =      T    sub-space diagonalisation (order eigenvalues)
   LSUBROT=      F    optimize rotation matrix (better conditioning)
   TURBO    =      0    0=normal 1=particle mesh
   IRESTART =      0    0=no restart 2=restart with 2 vectors
   NREBOOT  =      0    no. of reboots
   NMIN     =      0    reboot dimension
   EREF     =   0.00    reference energy to select bands
   IMIX   =      4    mixing-type and parameters
     AMIX     =   0.40;   BMIX     =  1.00
     AMIX_MAG =   1.60;   BMIX_MAG =  1.00
     AMIN     =   0.10
[...]
z     0.0015   -0.0015   -0.0000   -0.0002   -0.0002   -0.0002    0.0000   -0.0000    0.0000   -0.0000
z    -0.0000    0.0000   -0.0000   -0.0000    0.0000   -0.0000   -0.0000    0.0000    0.0000    0.0000
z     0.0000    0.0000   -0.0000    0.0000

------------------------ aborting loop because EDIFF is reached ----------------------------------------

  FORCE on cell =-STRESS in cart. coord.  units (eV):
  Direction    XX          YY          ZZ          XY          YZ          ZX
  Alpha Z     3.24299     3.24299     3.24299
  Ewald     -76.18788   -76.18788   -76.18788    -0.00000     0.00000     0.00000
  Hartree     5.73118     5.73118     5.73118    -0.00000    -0.00000    -0.00000
  E(xc)     -25.55177   -25.55177   -25.55177     0.00001     0.00001     0.00001
  Local     -31.21817   -31.21817   -31.21817     0.00005     0.00005     0.00005
  n-local    75.35310    77.40189    79.24298    -0.84799    -0.84801    -2.19338
  augment   -11.19163   -11.19163   -11.19163    -0.00004    -0.00004    -0.00004
  Kinetic    59.94891    62.84843    62.53439    -0.93530    -0.93530    -1.67760
  Fock        0.00000     0.00000     0.00000     0.00000     0.00000     0.00000
  Total       3.93462     3.93462     3.93462     0.00000    -0.00000    -0.00000
  in kB     157.49765   157.49765   157.49765     0.00000    -0.00000    -0.00000

 VOLUME and BASIS-vectors are now :
  energy-cutoff  :      245.44
  volume of cell :       40.03
      direct lattice vectors                 reciprocal lattice vectors
     2.715000000  2.715000000  0.000000000     0.184162063  0.184162063 -0.184162063
     0.000000000  2.715000000  2.715000000    -0.184162063  0.184162063  0.184162063
     2.715000000  0.000000000  2.715000000     0.184162063 -0.184162063  0.184162063

  length of vectors
     3.839589822  3.839589822  3.839589822     0.318978049  0.318978049  0.318978049

 FORCES acting on ions
    electron-ion (+dipol)            ewald-force                    non-local-force                 convergence-correction
   0.447E-05 0.447E-05 0.447E-05   -.273E-14 0.111E-14 0.310E-14   0.104E-16 0.243E-16 -.451E-16   0.538E-06 0.538E-06 0.538E-06
   -.447E-05 -.447E-05 -.447E-05   0.315E-14 -.993E-15 -.291E-14   -.451E-16 -.208E-16 0.347E-17   -.538E-06 -.538E-06 -.538E-06
   -.681E-15 -.164E-13 0.236E-14   0.422E-15 0.120E-15 0.187E-15   -.347E-16 0.347E-17 -.416E-16   -.170E-14 0.199E-14 0.129E-16

 POSITION                                       TOTAL-FORCE (eV/Angst)
      0.00000      0.00000      0.00000        -0.000000     -0.000000     -0.000000
      1.35750      1.35750      1.35750         0.000000      0.000000      0.000000
    total drift:                               -0.000000     -0.000000      0.000000

  FREE ENERGIE OF THE ION-ELECTRON SYSTEM (eV)
  free  energy   TOTEN  =        -7.10613786 eV

  energy  without entropy=       -7.10376889  energy(sigma->0) =       -7.10495337

 writing wavefunctions

 plasma frequency squared (from intraband transitions)
       0.120       0.000      -0.000
       0.000       0.120      -0.000
      -0.000      -0.000       0.120

 electrical conductivity sigma (Mega S m-1) (frequency dependency in vasprun.xml)
       0.000       0.000       0.000
       0.000       0.000       0.000
       0.000       0.000       0.000

 plasma frequency squared (from intraband transitions)

 plasma frequency squared (from interband transitions, int dw w eps(2)(w)
     396.986      -0.000       0.000
      -0.000     396.986       0.000
       0.000       0.000     396.986
 plasma frequency squared  (valence only):     275.596

  frequency dependent IMAGINARY DIELECTRIC FUNCTION (independent particle, no local field effects)
     E(ev)      X         Y         Z        XY        YZ        ZX
    0.000000    0.000000    0.000000    0.000000    0.000000    0.000000    0.000000
    0.265183    0.929714    0.929714    0.929714   -0.000000    0.000000    0.000000
    0.530367    0.576488    0.576488    0.576488   -0.000000    0.000000    0.000000
    0.795550    0.754169    0.754169    0.754169   -0.000000    0.000000    0.000000
    1.060734    1.114818    1.114818    1.114818   -0.000000    0.000000    0.000000
    1.325917    1.677350    1.677350    1.677350   -0.000000   -0.000000    0.000000
    1.591101    2.639866    2.639866    2.639866   -0.000000   -0.000000    0.000000
    1.856284    4.611085    4.611085    4.611085   -0.000000   -0.000000    0.000000
    2.121468   10.507154   10.507154   10.507154    0.000000   -0.000000    0.000000
    2.386651   41.726319   41.726319   41.726319    0.000000   -0.000000    0.000000
    2.651835  122.460749  122.460749  122.460749    0.000000   -0.000000    0.000000
    2.917018  114.938008  114.938008  114.938008   -0.000000    0.000000    0.000000
    3.182201   72.123123   72.123123   72.123123   -0.000000    0.000000    0.000000
    3.447385   69.369271   69.369271   69.369271   -0.000000    0.000000    0.000000
    3.712568   64.138094   64.138094   64.138094   -0.000000    0.000000   -0.000000
    3.977752   38.921615   38.921615   38.921615   -0.000000    0.000000   -0.000000
    4.242935   26.911462   26.911462   26.911462   -0.000000    0.000000   -0.000000
    4.508119   28.614823   28.614823   28.614823   -0.000000   -0.000000   -0.000000
    4.773302   17.859182   17.859182   17.859182    0.000000   -0.000000   -0.000000
    5.038486    9.422314    9.422314    9.422314    0.000000   -0.000000    0.000000
    5.303669    7.556670    7.556670    7.556670    0.000000   -0.000000    0.000000
    5.568853    5.504132    5.504132    5.504132   -0.000000    0.000000    0.000000
    5.834036    3.340641    3.340641    3.340641   -0.000000    0.000000    0.000000
    6.099220    2.711120    2.711120    2.711120   -0.000000    0.000000    0.000000
    6.364403    2.336942    2.336942    2.336942   -0.000000    0.000000    0.000000
    6.629586    1.943726    1.943726    1.943726   -0.000000    0.000000   -0.000000
    6.894770    1.761666    1.761666    1.761666   -0.000000    0.000000   -0.000000
    7.159953    1.445233    1.445233    1.445233   -0.000000   -0.000000   -0.000000
    7.425137    1.272157    1.272157    1.272157    0.000000   -0.000000   -0.000000
    7.690320    1.154033    1.154033    1.154033   -0.000000   -0.000000    0.000000
    7.955504    1.133760    1.133760    1.133760   -0.000000   -0.000000    0.000000
    8.220687    0.978696    0.978696    0.978696   -0.000000   -0.000000   -0.000000
    8.485871    1.074255    1.074255    1.074255   -0.000000    0.000000   -0.000000
    8.751054    0.989956    0.989956    0.989956   -0.000000    0.000000   -0.000000
    9.016238    0.751189    0.751189    0.751189    0.000000   -0.000000    0.000000
    9.281421    0.696556    0.696556    0.696556   -0.000000   -0.000000   -0.000000
    9.546604    0.611162    0.611162    0.611162   -0.000000   -0.000000   -0.000000
    9.811788    0.494245    0.494245    0.494245   -0.000000    0.000000   -0.000000
   10.076971    0.471293    0.471293    0.471293   -0.000000    0.000000   -0.000000
   10.342155    0.427878    0.427878    0.427878   -0.000000    0.000000   -0.000000
   10.607338    0.382560    0.382560    0.382560   -0.000000    0.000000   -0.000000
   10.872522    0.314643    0.314643    0.314643   -0.000000    0.000000   -0.000000
   11.137705    0.322664    0.322664    0.322664   -0.000000   -0.000000   -0.000000
   11.402889    0.313332    0.313332    0.313332    0.000000   -0.000000    0.000000
   11.668072    0.292419    0.292419    0.292419   -0.000000    0.000000   -0.000000
   11.933256    0.240884    0.240884    0.240884   -0.000000   -0.000000   -0.000000
   12.198439    0.223562    0.223562    0.223562    0.000000    0.000000    0.000000
   12.463623    0.188104    0.188104    0.188104    0.000000   -0.000000    0.000000
   12.728806    0.195462    0.195462    0.195462   -0.000000   -0.000000    0.000000
   12.993989    0.182729    0.182729    0.182729   -0.000000    0.000000    0.000000
   13.259173    0.136385    0.136385    0.136385   -0.000000   -0.000000    0.000000
   13.524356    0.115701    0.115701    0.115701   -0.000000    0.000000   -0.000000
   13.789540    0.104457    0.104457    0.104457   -0.000000    0.000000    0.000000
   14.054723    0.105570    0.105570    0.105570   -0.000000    0.000000    0.000000
   14.319907    0.163863    0.163863    0.163863    0.000000    0.000000    0.000000
   14.585090    0.265294    0.265294    0.265294   -0.000000    0.000000   -0.000000
   14.850274    0.181796    0.181796    0.181796   -0.000000   -0.000000    0.000000
   15.115457    0.098118    0.098118    0.098118   -0.000000    0.000000    0.000000
   15.380641    0.066123    0.066123    0.066123   -0.000000    0.000000   -0.000000
   15.645824    0.050699    0.050699    0.050699   -0.000000   -0.000000    0.000000
[...]
   22.540594    0.007535    0.007535    0.007535   -0.000000    0.000000    0.000000
   22.805777    0.007257    0.007257    0.007257   -0.000000    0.000000    0.000000
   23.070961    0.006993    0.006993    0.006993   -0.000000    0.000000    0.000000
   23.336144    0.006742    0.006742    0.006742   -0.000000    0.000000    0.000000
   23.601328    0.006504    0.006504    0.006504   -0.000000    0.000000    0.000000
   23.866511    0.006277    0.006277    0.006277   -0.000000    0.000000    0.000000
   24.131695    0.006060    0.006060    0.006060   -0.000000    0.000000    0.000000
   24.396878    0.005854    0.005854    0.005854   -0.000000    0.000000    0.000000
   24.662062    0.005657    0.005657    0.005657   -0.000000    0.000000    0.000000
   24.927245    0.005469    0.005469    0.005469   -0.000000    0.000000    0.000000
   25.192429    0.005290    0.005290    0.005290   -0.000000    0.000000    0.000000
   25.457612    0.005118    0.005118    0.005118   -0.000000    0.000000    0.000000
   25.722795    0.004954    0.004954    0.004954   -0.000000    0.000000    0.000000
   25.987979    0.004797    0.004797    0.004797   -0.000000    0.000000    0.000000
   26.253162    0.004647    0.004647    0.004647   -0.000000    0.000000    0.000000

  frequency dependent      REAL DIELECTRIC FUNCTION (independent particle, no local field effects)
     E(ev)      X         Y         Z        XY        YZ        ZX
    0.000000   37.912702   37.912702   37.912702   -0.000000    0.000000    0.000000
    0.265183   36.948287   36.948287   36.948287   -0.000000    0.000000    0.000000
    0.530367   37.643924   37.643924   37.643924   -0.000000    0.000000    0.000000
    0.795550   39.267846   39.267846   39.267846   -0.000000    0.000000    0.000000
    1.060734   41.683194   41.683194   41.683194   -0.000000    0.000000    0.000000
    1.325917   45.290388   45.290388   45.290388   -0.000000    0.000000    0.000000
    1.591101   50.811421   50.811421   50.811421   -0.000000    0.000000    0.000000
    1.856284   59.850324   59.850324   59.850324   -0.000000    0.000000    0.000000
    2.121468   76.836345   76.836345   76.836345   -0.000000    0.000000    0.000000
    2.386651  106.763673  106.763673  106.763673   -0.000000   -0.000000    0.000000
    2.651835   82.634457   82.634457   82.634457   -0.000000    0.000000    0.000000
    2.917018   -7.023725   -7.023725   -7.023725   -0.000000    0.000000   -0.000000
    3.182201  -14.604422  -14.604422  -14.604422   -0.000000   -0.000000    0.000000
    3.447385  -14.102059  -14.102059  -14.102059   -0.000000   -0.000000   -0.000000
    3.712568  -32.881720  -32.881720  -32.881720   -0.000000    0.000000   -0.000000
    3.977752  -40.327859  -40.327859  -40.327859    0.000000   -0.000000    0.000000
    4.242935  -29.688832  -29.688832  -29.688832    0.000000   -0.000000   -0.000000
    4.508119  -28.678381  -28.678381  -28.678381    0.000000   -0.000000   -0.000000
    4.773302  -33.702919  -33.702919  -33.702919    0.000000    0.000000    0.000000
    5.038486  -26.903021  -26.903021  -26.903021    0.000000    0.000000   -0.000000
    5.303669  -22.174668  -22.174668  -22.174668    0.000000    0.000000   -0.000000
    5.568853  -19.925656  -19.925656  -19.925656    0.000000   -0.000000   -0.000000
    5.834036  -16.978463  -16.978463  -16.978463    0.000000   -0.000000   -0.000000
    6.099220  -14.186699  -14.186699  -14.186699    0.000000   -0.000000   -0.000000
    6.364403  -12.538188  -12.538188  -12.538188    0.000000   -0.000000   -0.000000
    6.629586  -11.002969  -11.002969  -11.002969    0.000000   -0.000000   -0.000000
    6.894770   -9.828706   -9.828706   -9.828706    0.000000   -0.000000   -0.000000
    7.159953   -8.883435   -8.883435   -8.883435    0.000000   -0.000000   -0.000000
    7.425137   -7.925950   -7.925950   -7.925950    0.000000   -0.000000   -0.000000
    7.690320   -7.130272   -7.130272   -7.130272    0.000000   -0.000000   -0.000000
    7.955504   -6.546398   -6.546398   -6.546398    0.000000   -0.000000   -0.000000
    8.220687   -5.927516   -5.927516   -5.927516    0.000000   -0.000000   -0.000000
    8.485871   -5.448546   -5.448546   -5.448546    0.000000   -0.000000   -0.000000
    8.751054   -5.222864   -5.222864   -5.222864    0.000000   -0.000000   -0.000000
    9.016238   -4.852892   -4.852892   -4.852892    0.000000   -0.000000   -0.000000
    9.281421   -4.429112   -4.429112   -4.429112    0.000000   -0.000000   -0.000000
    9.546604   -4.172996   -4.172996   -4.172996    0.000000   -0.000000   -0.000000
    9.811788   -3.824805   -3.824805   -3.824805    0.000000   -0.000000   -0.000000
   10.076971   -3.529142   -3.529142   -3.529142    0.000000   -0.000000   -0.000000
   10.342155   -3.288874   -3.288874   -3.288874    0.000000   -0.000000   -0.000000
   10.607338   -3.071524   -3.071524   -3.071524    0.000000   -0.000000   -0.000000
   10.872522   -2.828806   -2.828806   -2.828806    0.000000   -0.000000   -0.000000
   11.137705   -2.612393   -2.612393   -2.612393    0.000000   -0.000000   -0.000000
   11.402889   -2.445539   -2.445539   -2.445539    0.000000   -0.000000   -0.000000
   11.668072   -2.307185   -2.307185   -2.307185    0.000000   -0.000000   -0.000000
   11.933256   -2.154444   -2.154444   -2.154444    0.000000   -0.000000   -0.000000
   12.198439   -2.006491   -2.006491   -2.006491    0.000000   -0.000000   -0.000000
   12.463623   -1.858546   -1.858546   -1.858546    0.000000   -0.000000   -0.000000
   12.728806   -1.723964   -1.723964   -1.723964    0.000000   -0.000000   -0.000000
   12.993989   -1.633811   -1.633811   -1.633811    0.000000   -0.000000   -0.000000
   13.259173   -1.522425   -1.522425   -1.522425    0.000000   -0.000000   -0.000000
   13.524356   -1.395939   -1.395939   -1.395939    0.000000   -0.000000   -0.000000
   13.789540   -1.276423   -1.276423   -1.276423    0.000000   -0.000000   -0.000000
   14.054723   -1.150571   -1.150571   -1.150571    0.000000   -0.000000   -0.000000
   14.319907   -1.021866   -1.021866   -1.021866    0.000000   -0.000000   -0.000000
   14.585090   -1.032726   -1.032726   -1.032726    0.000000   -0.000000   -0.000000
   14.850274   -1.073237   -1.073237   -1.073237    0.000000   -0.000000   -0.000000
   15.115457   -0.987074   -0.987074   -0.987074    0.000000   -0.000000   -0.000000
   15.380641   -0.892863   -0.892863   -0.892863    0.000000   -0.000000   -0.000000
   15.645824   -0.807865   -0.807865   -0.807865    0.000000   -0.000000   -0.000000
[...]
   22.540594    0.187697    0.187697    0.187697    0.000000   -0.000000   -0.000000
   22.805777    0.207304    0.207304    0.207304    0.000000   -0.000000   -0.000000
   23.070961    0.226194    0.226194    0.226194    0.000000   -0.000000   -0.000000
   23.336144    0.244402    0.244402    0.244402    0.000000   -0.000000   -0.000000
   23.601328    0.261960    0.261960    0.261960    0.000000   -0.000000   -0.000000
   23.866511    0.278902    0.278902    0.278902    0.000000   -0.000000   -0.000000
   24.131695    0.295255    0.295255    0.295255    0.000000   -0.000000   -0.000000
   24.396878    0.311050    0.311050    0.311050    0.000000   -0.000000   -0.000000
   24.662062    0.326309    0.326309    0.326309    0.000000   -0.000000   -0.000000
   24.927245    0.341059    0.341059    0.341059    0.000000   -0.000000   -0.000000
   25.192429    0.355322    0.355322    0.355322    0.000000   -0.000000   -0.000000
   25.457612    0.369119    0.369119    0.369119    0.000000   -0.000000   -0.000000
   25.722795    0.382472    0.382472    0.382472    0.000000   -0.000000   -0.000000
   25.987979    0.395400    0.395400    0.395400    0.000000   -0.000000   -0.000000
   26.253162    0.407921    0.407921    0.407921    0.000000   -0.000000   -0.000000

 The outermost node in the dielectric function lies at epsilon=  20.4