 vasp.5.4.4.18Apr17-6-g9f103f2a35 (build May 20 2018 16:52:39) complex

 executed on             LinuxIFC date 2022.11.15  15:16:17

 INCAR:
 POTCAR:    PAW W
 POTCAR:    PAW W
   VRHFIN =W: 5p6s5d

   TITEL  = PAW W
   POMASS =  183.850; ZVAL   =    6.000    mass and valenz
   ENMAX  =  223.126; ENMIN  =  167.344 eV
   QCUT   =   -4.050; QGAM   =    8.099    optimization parameters

   Description
     l     E      TYP  RCUT    TYP  RCUT
     2   .000     23  2.500
     2   .000     23  2.500
     0   .000     23  2.500
     0   .000     23  2.500
     1   .200     23  2.750
     1  2.000     23  2.750
     3   .000      7   .000

  PAW W                                 :

 POSCAR: BCC W 7-layers
  positions in direct lattice
 exchange correlation table for  LEXCH =        2
   RHO(1)=    0.500       N(1)  =     2000
   RHO(2)=  100.500       N(2)  =     4000

 ion  position               nearest neighbor table
   1  0.000  0.000  0.000-   2 2.74   2 2.74   2 2.74   2 2.74   3 3.16
   2  0.500  0.500  0.083-   1 2.74   1 2.74   1 2.74   1 2.74   3 2.74   3 2.74   3 2.74   3 2.74
                             4 3.16
   3  0.000  0.000  0.167-   4 2.74   4 2.74   4 2.74   4 2.74   2 2.74   2 2.74   2 2.74   2 2.74
                             5 3.16   1 3.16
   4  0.500  0.500  0.250-   3 2.74   5 2.74   3 2.74   5 2.74   3 2.74   5 2.74   3 2.74   5 2.74
                             2 3.16   6 3.16
   5  0.000  0.000  0.333-   4 2.74   4 2.74   4 2.74   4 2.74   6 2.74   6 2.74   6 2.74   6 2.74
                             3 3.16   7 3.16
   6  0.500  0.500  0.417-   7 2.74   7 2.74   7 2.74   7 2.74   5 2.74   5 2.74   5 2.74   5 2.74
                             4 3.16
   7  0.000  0.000  0.500-   6 2.74   6 2.74   6 2.74   6 2.74   5 3.16

  LATTYP: Found a simple tetragonal cell.
 ALAT       =     3.1600000000
 C/A-ratio  =     6.0000000000

  Lattice vectors:

 A1 = (   3.1600000000,   0.0000000000,   0.0000000000)
 A2 = (   0.0000000000,   3.1600000000,   0.0000000000)
 A3 = (   0.0000000000,   0.0000000000,  18.9600000000)

Analysis of symmetry for initial positions (statically):
 Subroutine PRICEL returns:
 Original cell was already a primitive cell.

 Routine SETGRP: Setting up the symmetry group for a
 simple tetragonal supercell.

 Subroutine GETGRP returns: Found 16 space group operations
 (whereof  8 operations were pure point group operations)
 out of a pool of 16 trial point group operations.

The static configuration has the point symmetry C_4v.
 The point group associated with its full space group is D_4h.

Analysis of symmetry for dynamics (positions and initial velocities):
 Subroutine PRICEL returns:
 Original cell was already a primitive cell.

 Routine SETGRP: Setting up the symmetry group for a
 simple tetragonal supercell.

 Subroutine GETGRP returns: Found 16 space group operations
 (whereof  8 operations were pure point group operations)
 out of a pool of 16 trial point group operations.

The dynamic configuration has the point symmetry C_4v.
 The point group associated with its full space group is D_4h.

 Subroutine INISYM returns: Found 16 space group operations
 (whereof  8 operations are pure point group operations),
 and found     1 'primitive' translations

 KPOINTS: Gamma 20*20*4

Automatic generation of k-mesh.
Space group operators:
 irot       det(A)        alpha          n_x          n_y          n_z        tau_x        tau_y        tau_z
    1     1.000000     0.000000     1.000000     0.000000     0.000000     0.000000     0.000000     0.000000
    2     1.000000    90.000000     0.000000     0.000000    -1.000000     0.000000     0.000000     0.000000
    3     1.000000   180.000000     0.000000     0.000000     1.000000     0.000000     0.000000     0.000000
    4     1.000000    90.000000     0.000000     0.000000     1.000000     0.000000     0.000000     0.000000
    5    -1.000000   179.999999     0.000000     1.000000     0.000000     0.000000     0.000000     0.000000
    6    -1.000000   180.000000     0.707107     0.707107     0.000000     0.000000     0.000000     0.000000
    7    -1.000000   180.000000     1.000000     0.000000     0.000000     0.000000     0.000000     0.000000
    8    -1.000000   180.000000     0.707107    -0.707107     0.000000     0.000000     0.000000     0.000000
    9    -1.000000     0.000000     1.000000     0.000000     0.000000     0.000000     0.000000     0.500000
   10    -1.000000    90.000000     0.000000     0.000000    -1.000000     0.000000     0.000000     0.500000
   11    -1.000000   180.000000     0.000000     0.000000     1.000000     0.000000     0.000000     0.500000
   12    -1.000000    90.000000     0.000000     0.000000     1.000000     0.000000     0.000000     0.500000
   13     1.000000   179.999999     0.000000     1.000000     0.000000     0.000000     0.000000     0.500000
   14     1.000000   180.000000     0.707107     0.707107     0.000000     0.000000     0.000000     0.500000
   15     1.000000   180.000000     1.000000     0.000000     0.000000     0.000000     0.000000     0.500000
   16     1.000000   180.000000     0.707107    -0.707107     0.000000     0.000000     0.000000     0.500000

 Subroutine IBZKPT returns following result:

 Found    198 irreducible k-points:

 Following reciprocal coordinates:
            Coordinates               Weight
  0.000000  0.000000  0.000000      1.000000
  0.050000  0.000000  0.000000      4.000000
  0.100000  0.000000  0.000000      4.000000
  0.150000  0.000000  0.000000      4.000000
  0.200000  0.000000  0.000000      4.000000
  0.250000  0.000000  0.000000      4.000000
  0.300000  0.000000  0.000000      4.000000
  0.350000  0.000000  0.000000      4.000000
  0.400000  0.000000  0.000000      4.000000
  0.450000  0.000000  0.000000      4.000000
  0.500000  0.000000  0.000000      2.000000
  0.050000  0.050000  0.000000      4.000000
  0.100000  0.050000  0.000000      8.000000
  0.150000  0.050000  0.000000      8.000000
  0.200000  0.050000  0.000000      8.000000
  0.250000  0.050000  0.000000      8.000000
  0.300000  0.050000  0.000000      8.000000
  0.350000  0.050000  0.000000      8.000000
  0.400000  0.050000  0.000000      8.000000
  0.450000  0.050000  0.000000      8.000000
  0.500000  0.050000  0.000000      4.000000
  0.100000  0.100000  0.000000      4.000000
  0.150000  0.100000  0.000000      8.000000
  0.200000  0.100000  0.000000      8.000000
  0.250000  0.100000  0.000000      8.000000
  0.300000  0.100000  0.000000      8.000000
  0.350000  0.100000  0.000000      8.000000
  0.400000  0.100000  0.000000      8.000000
  0.450000  0.100000  0.000000      8.000000
  0.500000  0.100000  0.000000      4.000000
  0.150000  0.150000  0.000000      4.000000
  0.200000  0.150000  0.000000      8.000000
  0.250000  0.150000  0.000000      8.000000
  0.300000  0.150000  0.000000      8.000000
  0.350000  0.150000  0.000000      8.000000
  0.400000  0.150000  0.000000      8.000000
  0.450000  0.150000  0.000000      8.000000
  0.500000  0.150000  0.000000      4.000000
  0.200000  0.200000  0.000000      4.000000
  0.250000  0.200000  0.000000      8.000000
  0.300000  0.200000  0.000000      8.000000
  0.350000  0.200000  0.000000      8.000000
  0.400000  0.200000  0.000000      8.000000
  0.450000  0.200000  0.000000      8.000000
  0.500000  0.200000  0.000000      4.000000
  0.250000  0.250000  0.000000      4.000000
  0.300000  0.250000  0.000000      8.000000
  0.350000  0.250000  0.000000      8.000000
  0.400000  0.250000  0.000000      8.000000
  0.450000  0.250000  0.000000      8.000000
  0.500000  0.250000  0.000000      4.000000
  0.300000  0.300000  0.000000      4.000000
  0.350000  0.300000  0.000000      8.000000
  0.400000  0.300000  0.000000      8.000000
  0.450000  0.300000  0.000000      8.000000
  0.500000  0.300000  0.000000      4.000000
  0.350000  0.350000  0.000000      4.000000
  0.400000  0.350000  0.000000      8.000000
  0.450000  0.350000  0.000000      8.000000
  0.500000  0.350000  0.000000      4.000000
[...]
  0.300000  0.300000  0.500000      4.000000
  0.350000  0.300000  0.500000      8.000000
  0.400000  0.300000  0.500000      8.000000
  0.450000  0.300000  0.500000      8.000000
  0.500000  0.300000  0.500000      4.000000
  0.350000  0.350000  0.500000      4.000000
  0.400000  0.350000  0.500000      8.000000
  0.450000  0.350000  0.500000      8.000000
  0.500000  0.350000  0.500000      4.000000
  0.400000  0.400000  0.500000      4.000000
  0.450000  0.400000  0.500000      8.000000
  0.500000  0.400000  0.500000      4.000000
  0.450000  0.450000  0.500000      4.000000
  0.500000  0.450000  0.500000      4.000000
  0.500000  0.500000  0.500000      1.000000

 Following cartesian coordinates:
            Coordinates               Weight
  0.000000  0.000000  0.000000      1.000000
  0.050000  0.000000  0.000000      4.000000
  0.100000  0.000000  0.000000      4.000000
  0.150000  0.000000  0.000000      4.000000
  0.200000  0.000000  0.000000      4.000000
  0.250000  0.000000  0.000000      4.000000
  0.300000  0.000000  0.000000      4.000000
  0.350000  0.000000  0.000000      4.000000
  0.400000  0.000000  0.000000      4.000000
  0.450000  0.000000  0.000000      4.000000
  0.500000  0.000000  0.000000      2.000000
  0.050000  0.050000  0.000000      4.000000
  0.100000  0.050000  0.000000      8.000000
  0.150000  0.050000  0.000000      8.000000
  0.200000  0.050000  0.000000      8.000000
  0.250000  0.050000  0.000000      8.000000
  0.300000  0.050000  0.000000      8.000000
  0.350000  0.050000  0.000000      8.000000
  0.400000  0.050000  0.000000      8.000000
  0.450000  0.050000  0.000000      8.000000
  0.500000  0.050000  0.000000      4.000000
  0.100000  0.100000  0.000000      4.000000
  0.150000  0.100000  0.000000      8.000000
  0.200000  0.100000  0.000000      8.000000
  0.250000  0.100000  0.000000      8.000000
  0.300000  0.100000  0.000000      8.000000
  0.350000  0.100000  0.000000      8.000000
  0.400000  0.100000  0.000000      8.000000
  0.450000  0.100000  0.000000      8.000000
  0.500000  0.100000  0.000000      4.000000
  0.150000  0.150000  0.000000      4.000000
  0.200000  0.150000  0.000000      8.000000
  0.250000  0.150000  0.000000      8.000000
  0.300000  0.150000  0.000000      8.000000
  0.350000  0.150000  0.000000      8.000000
  0.400000  0.150000  0.000000      8.000000
  0.450000  0.150000  0.000000      8.000000
  0.500000  0.150000  0.000000      4.000000
  0.200000  0.200000  0.000000      4.000000
  0.250000  0.200000  0.000000      8.000000
  0.300000  0.200000  0.000000      8.000000
  0.350000  0.200000  0.000000      8.000000
  0.400000  0.200000  0.000000      8.000000
  0.450000  0.200000  0.000000      8.000000
  0.500000  0.200000  0.000000      4.000000
  0.250000  0.250000  0.000000      4.000000
  0.300000  0.250000  0.000000      8.000000
  0.350000  0.250000  0.000000      8.000000
  0.400000  0.250000  0.000000      8.000000
  0.450000  0.250000  0.000000      8.000000
  0.500000  0.250000  0.000000      4.000000
  0.300000  0.300000  0.000000      4.000000
[...]
 k-point 43 :   0.4000 0.2000 0.0000  plane waves:    6327
 k-point 44 :   0.4500 0.2000 0.0000  plane waves:    6315
 k-point 45 :   0.5000 0.2000 0.0000  plane waves:    6316
 k-point 46 :   0.2500 0.2500 0.0000  plane waves:    6299
 k-point 47 :   0.3000 0.2500 0.0000  plane waves:    6300
 k-point 48 :   0.3500 0.2500 0.0000  plane waves:    6311
 k-point 49 :   0.4000 0.2500 0.0000  plane waves:    6318
 k-point 50 :   0.4500 0.2500 0.0000  plane waves:    6311
 k-point 51 :   0.5000 0.2500 0.0000  plane waves:    6306
 k-point 52 :   0.3000 0.3000 0.0000  plane waves:    6311
 k-point 53 :   0.3500 0.3000 0.0000  plane waves:    6300
 k-point 54 :   0.4000 0.3000 0.0000  plane waves:    6291
 k-point 55 :   0.4500 0.3000 0.0000  plane waves:    6306
 k-point 56 :   0.5000 0.3000 0.0000  plane waves:    6310
 k-point 57 :   0.3500 0.3500 0.0000  plane waves:    6287
 k-point 58 :   0.4000 0.3500 0.0000  plane waves:    6291
 k-point 59 :   0.4500 0.3500 0.0000  plane waves:    6290
 k-point 60 :   0.5000 0.3500 0.0000  plane waves:    6290
[...]
 k-point 85 :   0.4000 0.0500 0.2500  plane waves:    6343
 k-point 86 :   0.4500 0.0500 0.2500  plane waves:    6349
 k-point 87 :   0.5000 0.0500 0.2500  plane waves:    6354
 k-point 88 :   0.1000 0.1000 0.2500  plane waves:    6334
 k-point 89 :   0.1500 0.1000 0.2500  plane waves:    6337
 k-point 90 :   0.2000 0.1000 0.2500  plane waves:    6331
 k-point 91 :   0.2500 0.1000 0.2500  plane waves:    6322
 k-point 92 :   0.3000 0.1000 0.2500  plane waves:    6328
 k-point 93 :   0.3500 0.1000 0.2500  plane waves:    6321
 k-point 94 :   0.4000 0.1000 0.2500  plane waves:    6329
 k-point 95 :   0.4500 0.1000 0.2500  plane waves:    6342
 k-point 96 :   0.5000 0.1000 0.2500  plane waves:    6332
 k-point 97 :   0.1500 0.1500 0.2500  plane waves:    6336
 k-point 98 :   0.2000 0.1500 0.2500  plane waves:    6331
 k-point 99 :   0.2500 0.1500 0.2500  plane waves:    6325
 k-point ** :   0.3000 0.1500 0.2500  plane waves:    6323
 k-point ** :   0.3500 0.1500 0.2500  plane waves:    6315
 k-point ** :   0.4000 0.1500 0.2500  plane waves:    6321
 k-point ** :   0.4500 0.1500 0.2500  plane waves:    6316
 k-point ** :   0.5000 0.1500 0.2500  plane waves:    6316
 k-point ** :   0.2000 0.2000 0.2500  plane waves:    6319
 k-point ** :   0.2500 0.2000 0.2500  plane waves:    6312
 k-point ** :   0.3000 0.2000 0.2500  plane waves:    6311
 k-point ** :   0.3500 0.2000 0.2500  plane waves:    6311
 k-point ** :   0.4000 0.2000 0.2500  plane waves:    6308
 k-point ** :   0.4500 0.2000 0.2500  plane waves:    6316
 k-point ** :   0.5000 0.2000 0.2500  plane waves:    6312
 k-point ** :   0.2500 0.2500 0.2500  plane waves:    6307
 k-point ** :   0.3000 0.2500 0.2500  plane waves:    6298
 k-point ** :   0.3500 0.2500 0.2500  plane waves:    6306
 k-point ** :   0.4000 0.2500 0.2500  plane waves:    6311
 k-point ** :   0.4500 0.2500 0.2500  plane waves:    6315
 k-point ** :   0.5000 0.2500 0.2500  plane waves:    6320
 k-point ** :   0.3000 0.3000 0.2500  plane waves:    6285
 k-point ** :   0.3500 0.3000 0.2500  plane waves:    6296
 k-point ** :   0.4000 0.3000 0.2500  plane waves:    6291
 k-point ** :   0.4500 0.3000 0.2500  plane waves:    6292
 k-point ** :   0.5000 0.3000 0.2500  plane waves:    6296
 k-point ** :   0.3500 0.3500 0.2500  plane waves:    6293
 k-point ** :   0.4000 0.3500 0.2500  plane waves:    6289
 k-point ** :   0.4500 0.3500 0.2500  plane waves:    6297
 k-point ** :   0.5000 0.3500 0.2500  plane waves:    6304
 k-point ** :   0.4000 0.4000 0.2500  plane waves:    6302
 k-point ** :   0.4500 0.4000 0.2500  plane waves:    6300
 k-point ** :   0.5000 0.4000 0.2500  plane waves:    6300
 k-point ** :   0.4500 0.4500 0.2500  plane waves:    6294
 k-point ** :   0.5000 0.4500 0.2500  plane waves:    6288
 k-point ** :   0.5000 0.5000 0.2500  plane waves:    6280
 k-point ** :   0.0000 0.0000 0.5000  plane waves:    6268
 k-point ** :   0.0500 0.0000 0.5000  plane waves:    6290
 k-point ** :   0.1000 0.0000 0.5000  plane waves:    6306
 k-point ** :   0.1500 0.0000 0.5000  plane waves:    6328
 k-point ** :   0.2000 0.0000 0.5000  plane waves:    6350
 k-point ** :   0.2500 0.0000 0.5000  plane waves:    6326
 k-point ** :   0.3000 0.0000 0.5000  plane waves:    6346
 k-point ** :   0.3500 0.0000 0.5000  plane waves:    6352
 k-point ** :   0.4000 0.0000 0.5000  plane waves:    6346
 k-point ** :   0.4500 0.0000 0.5000  plane waves:    6338
 k-point ** :   0.5000 0.0000 0.5000  plane waves:    6376
 k-point ** :   0.0500 0.0500 0.5000  plane waves:    6304
 k-point ** :   0.1000 0.0500 0.5000  plane waves:    6314
 k-point ** :   0.1500 0.0500 0.5000  plane waves:    6330
 k-point ** :   0.2000 0.0500 0.5000  plane waves:    6330
 k-point ** :   0.2500 0.0500 0.5000  plane waves:    6326
 k-point ** :   0.3000 0.0500 0.5000  plane waves:    6330
 k-point ** :   0.3500 0.0500 0.5000  plane waves:    6338
 k-point ** :   0.4000 0.0500 0.5000  plane waves:    6338
 k-point ** :   0.4500 0.0500 0.5000  plane waves:    6336
 k-point ** :   0.5000 0.0500 0.5000  plane waves:    6368
 k-point ** :   0.1000 0.1000 0.5000  plane waves:    6324
 k-point ** :   0.1500 0.1000 0.5000  plane waves:    6338
 k-point ** :   0.2000 0.1000 0.5000  plane waves:    6336
 k-point ** :   0.2500 0.1000 0.5000  plane waves:    6322
 k-point ** :   0.3000 0.1000 0.5000  plane waves:    6326
 k-point ** :   0.3500 0.1000 0.5000  plane waves:    6334
[...]
 k-point ** :   0.3000 0.3000 0.5000  plane waves:    6280
 k-point ** :   0.3500 0.3000 0.5000  plane waves:    6288
 k-point ** :   0.4000 0.3000 0.5000  plane waves:    6298
 k-point ** :   0.4500 0.3000 0.5000  plane waves:    6292
 k-point ** :   0.5000 0.3000 0.5000  plane waves:    6300
 k-point ** :   0.3500 0.3500 0.5000  plane waves:    6278
 k-point ** :   0.4000 0.3500 0.5000  plane waves:    6288
 k-point ** :   0.4500 0.3500 0.5000  plane waves:    6308
 k-point ** :   0.5000 0.3500 0.5000  plane waves:    6300
 k-point ** :   0.4000 0.4000 0.5000  plane waves:    6298
 k-point ** :   0.4500 0.4000 0.5000  plane waves:    6314
 k-point ** :   0.5000 0.4000 0.5000  plane waves:    6300
 k-point ** :   0.4500 0.4500 0.5000  plane waves:    6306
 k-point ** :   0.5000 0.4500 0.5000  plane waves:    6312
 k-point ** :   0.5000 0.5000 0.5000  plane waves:    6288

 maximum and minimum number of plane-waves per node :      6376     6268

 maximum number of plane-waves:      6376
 maximum index in each direction:
   IXMAX=    6   IYMAX=    6   IZMAX=   37
   IXMIN=   -6   IYMIN=   -6   IZMIN=  -38

 serial   3D FFT for wavefunctions
 parallel 3D FFT for charge:
    minimum data exchange during FFTs selected (reduces bandwidth)

 Broyden mixing: mesh for mixing (old mesh)
   NGX = 13   NGY = 13   NGZ = 75
  (NGX  = 40   NGY  = 40   NGZ  =240)
  gives a total of  12675 points

 initial charge density was supplied:
 charge density of overlapping atoms calculated
 number of electron      42.0000000 magnetization
 keeping initial charge density in first step

 Maximum index for augmentation-charges        13949 (set IRDMAX)

 First call to EWALD:  gamma=   0.309
 Maximum number of real-space cells 5x 5x 1
 Maximum number of reciprocal cells 2x 2x 8

--------------------------------------- Iteration      1(   1)  ---------------------------------------

 BZINTS: Fermi energy: 14.159160; 42.000000 electrons
         Band energy: 259.461369;  BLOECHL correction: -0.132621

 eigenvalue-minimisations  :  9908
 total energy-change (2. order) : 0.1973947E+03  (-0.1878562E+04)
 number of electron      42.0000000 magnetization
 augmentation part       42.0000000 magnetization

 Free energy of the ion-electron system (eV)
  alpha Z        PSCENC =       180.65856384
  Ewald energy   TEWEN  =      2440.32004124
  -Hartree energ DENC   =     -4199.91370984
  -exchange      EXHF   =         0.00000000
  -V(xc)+E(xc)   XCENC  =      -332.97047246
  PAW double counting   =      1284.74431790     -880.66065667
  entropy T*S    EENTRO =         0.00000000
  eigenvalues    EBANDS =       259.46136855
  atomic energy  EATOM  =      1445.75525229
  Solvation  Ediel_sol  =         0.00000000
  free energy    TOTEN  =       197.39470485 eV

  energy without entropy =      197.39470485  energy(sigma->0) =      197.39470485

[...]

 eigenvalue-minimisations  : 12844
 total energy-change (2. order) :-0.2689934E+03  (-0.2616323E+03)
 number of electron      42.0000000 magnetization
 augmentation part       42.0000000 magnetization

[...]

 Broyden mixing:
  rms(total) = 0.11775E+01    rms(broyden)= 0.11775E+01
  rms(prec ) = 0.16330E+01
  weight for this iteration     100.00

[...]

 eigenvalues of (default mixing * dielectric matrix)
  average eigenvalue GAMMA=   0.4281
  0.4281

[...]

 eigenvalue-minimisations  : 16277
 total energy-change (2. order) : 0.7817723E-03  (-0.1898534E-03)
 number of electron      42.0000002 magnetization
 augmentation part        4.8487554 magnetization

[...]

 Broyden mixing:
  rms(total) = 0.11490E-03    rms(broyden)= 0.11490E-03
  rms(prec ) = 0.15253E-03
  weight for this iteration     100.00

 eigenvalues of (default mixing * dielectric matrix)
  average eigenvalue GAMMA=   1.6566
  6.5061  3.1884  2.4396  2.0324  0.2596  1.5361  0.5317  0.5641  0.9233  0.9233
  1.1809  1.1051  1.1051  0.8972

[...]

--------------------------------------- Iteration      1(  20)  ---------------------------------------

 BZINTS: Fermi energy:  2.763515; 42.000000 electrons
         Band energy:  -9.381224;  BLOECHL correction: -0.024267

 eigenvalue-minimisations  :  8758
 total energy-change (2. order) :-0.6583468E-06  (-0.4891360E-07)
 number of electron      42.0000002 magnetization
 augmentation part        4.8483686 magnetization

 Free energy of the ion-electron system (eV)
  alpha Z        PSCENC =       180.65856384
  Ewald energy   TEWEN  =      2440.32004124
  -Hartree energ DENC   =     -4215.02470404
  -exchange      EXHF   =         0.00000000
  -V(xc)+E(xc)   XCENC  =      -330.05717610
  PAW double counting   =      1595.73936141    -1201.33924004
  entropy T*S    EENTRO =         0.00000000
  eigenvalues    EBANDS =        -9.38122364
  atomic energy  EATOM  =      1445.75525229
  Solvation  Ediel_sol  =         0.00000000
  free energy    TOTEN  =       -93.32912503 eV

  energy without entropy =      -93.32912503  energy(sigma->0) =      -93.32912503

 average (electrostatic) potential at core
  the test charge radii are     1.1823
  (the norm of the test charge is              1.0000)
       1 -43.1515       2 -43.0862       3 -43.2423       4 -43.0796       5 -43.2423
       6 -43.0862       7 -43.1515

 E-fermi :   2.7635     XC(G=0):  -9.0307     alpha+bet : -8.6250

 k-point     1 :       0.0000    0.0000    0.0000
  band No.  band energies     occupation
      1      -6.2954      2.00000
      2      -5.1545      2.00000
      3      -3.6067      2.00000
      4      -2.7884      2.00000
      5      -2.6661      2.00000
      6      -2.2447      2.00000
      7      -2.0835      2.00000
      8      -1.7002      2.00000
      9      -1.3343      2.00000
     10      -0.9796      2.00000
     11       0.3217      2.00000
     12       1.5570      2.00000
     13       1.5570      2.00000
     14       1.6953      2.00000
     15       1.6953      2.00000
     16       1.7850      2.00000
     17       1.8612      2.00000
     18       2.1240      2.00000
     19       2.1240      2.00000
     20       2.4203      2.00000
     21       2.4332      2.00000
     22       2.5102      2.00000
     23       2.7839      1.12711
     24       2.7839      0.00000
     25       3.3989      0.00000

[...]

 k-point   198 :       0.5000    0.5000    0.5000
  band No.  band energies     occupation
      1      -3.0155      2.00000
      2      -2.9791      2.00000
      3      -1.9826      2.00000
      4      -1.7436      2.00000
      5      -0.7667      2.00000
      6      -0.7667      2.00000
      7      -0.7266      2.00000
      8      -0.6336      2.00000
      9      -0.6336      2.00000
     10      -0.2238      2.00000
     11      -0.2238      2.00000
     12      -0.1780      2.00000
     13       0.2447      2.00000
     14       0.3936      2.00000
     15       0.3936      2.00000
     16       1.3306      2.00000
     17       1.3306      2.00000
     18       2.6088      2.00000
     19       2.6088      2.00000
     20       4.6121      0.00000
     21       4.6302      0.00000
     22       4.8716      0.00000
     23       4.8716      0.00000
     24       5.1327      0.00000
     25       5.1327      0.00000

 soft charge-density along one line, spin component           1
         0         1         2         3         4         5         6         7         8         9
 total charge-density along one line

------------------------ aborting loop because EDIFF is reached ----------------------------------------

  FORCE on cell =-STRESS in cart. coord.  units (eV):
  Direction    XX          YY          ZZ          XY          YZ          ZX
  Alpha Z   180.65856   180.65856   180.65856
  Ewald    3798.59004  3798.59004 -5156.86231     0.00000     0.00000     0.00000
  Hartree  4199.12754  4199.12754 -4183.23305    -0.00000    -0.00000    -0.00000
  E(xc)    -187.63808  -187.63808  -186.37104    -0.00000     0.00000     0.00000
  Local   -8494.82373 -8494.82373  8848.60383    -0.00000     0.00000    -0.00000
  n-local  -100.59070   -84.19561   -97.13528     5.01644    -0.00132     0.00502
  augment    36.51773    36.51773    36.44111    -0.00000     0.00000    -0.00000
  Kinetic   518.82504   570.21930   545.37785     4.76118    -0.00030    -0.01052
  Fock        0.00000     0.00000     0.00000     0.00000     0.00000     0.00000
  Total     -15.43892   -15.43892   -12.52033     0.00000     0.00000    -0.00000
  in kB    -130.65171  -130.65171  -105.95314     0.00000     0.00000    -0.00000

 VOLUME and BASIS-vectors are now :
  energy-cutoff  :      600.00
  volume of cell :      189.33
      direct lattice vectors                 reciprocal lattice vectors
     3.160000000  0.000000000  0.000000000     0.316455696  0.000000000  0.000000000
     0.000000000  3.160000000  0.000000000     0.000000000  0.316455696  0.000000000
     0.000000000  0.000000000 18.960000000     0.000000000  0.000000000  0.052742616

  length of vectors
     3.160000000  3.160000000 18.960000000     0.316455696  0.316455696  0.052742616

 FORCES acting on ions
    electron-ion (+dipol)            ewald-force                    non-local-force                 convergence-correction
   -.181E-14 0.269E-14 0.784E+03   0.639E-14 -.114E-14 -.777E+03   0.000E+00 0.254E-20 -.456E+01   -.728E-15 -.176E-15 0.934E-05
   -.115E-14 0.458E-14 0.545E+03   0.206E-14 -.218E-14 -.546E+03   -.169E-20 0.000E+00 -.123E+00   -.103E-14 -.110E-14 0.104E-02
   -.155E-14 0.429E-14 0.272E+03   0.505E-14 -.214E-14 -.272E+03   -.254E-20 0.000E+00 -.477E+00   0.827E-15 0.102E-15 0.974E-03
   -.316E-14 -.158E-13 0.115E-11   0.337E-14 -.196E-14 0.000E+00   0.000E+00 0.165E-23 -.993E-23   -.185E-14 -.322E-15 -.197E-12
   -.165E-14 0.438E-14 -.272E+03   0.170E-14 -.179E-14 0.272E+03   -.254E-20 0.000E+00 0.477E+00   0.377E-15 0.109E-14 -.974E-03
   -.154E-14 -.258E-13 -.545E+03   0.469E-14 -.174E-14 0.546E+03   -.169E-20 0.000E+00 0.123E+00   -.147E-14 0.149E-15 -.104E-02
   -.316E-14 0.349E-14 -.784E+03   0.349E-15 -.278E-14 0.777E+03   0.000E+00 -.127E-20 0.456E+01   -.129E-14 0.185E-14 -.934E-05
   -.140E-13 -.221E-13 0.223E-11   0.236E-13 -.137E-13 -.114E-12   -.847E-20 0.127E-20 0.000E+00   -.517E-14 0.160E-14 -.422E-12

 POSITION                                       TOTAL-FORCE (eV/Angst)
      0.00000      0.00000      0.00000        -0.000000      0.000000      2.431231
      1.58000      1.58000      1.58000         0.000000      0.000000     -1.672442
      0.00000      0.00000      3.16000        -0.000000     -0.000000      0.007972
      1.58000      1.58000      4.74000        -0.000000      0.000000     -0.000000
      0.00000      0.00000      6.32000        -0.000000      0.000000     -0.007972
      1.58000      1.58000      7.90000        -0.000000     -0.000000      1.672442
      0.00000      0.00000      9.48000         0.000000      0.000000     -2.431231
    total drift:                                0.000000     -0.000000      0.000000

  FREE ENERGIE OF THE ION-ELECTRON SYSTEM (eV)
  free  energy   TOTEN  =       -93.32912503 eV

  energy  without entropy=      -93.32912503  energy(sigma->0) =      -93.32912503

 writing wavefunctions
 BZINTS: Fermi energy:  2.763515; 42.000000 electrons
         Band energy:  -9.381224;  BLOECHL correction: -0.024267