 vasp.5.4.4.18Apr17-6-g9f103f2a35 (build May 20 2018 16:52:39) complex

 executed on             LinuxIFC date 2022.11.04  19:36:29

 INCAR:
 POTCAR:   PAW_PBE C 08Apr2002
 POTCAR:   PAW_PBE C 08Apr2002
   VRHFIN =C: s2p2

   TITEL  = PAW_PBE C 08Apr2002
   POMASS =   12.011; ZVAL   =    4.000    mass and valenz
   ENMAX  =  400.000; ENMIN  =  300.000 eV
   QCUT   =   -5.516; QGAM   =   11.032    optimization parameters

   Description
     l     E      TYP  RCUT    TYP  RCUT
     0   .000     23  1.200
     0   .000     23  1.200
     1   .000     23  1.500
     1  2.500     23  1.500
     2   .000      7  1.500

 PAW_PBE C 08Apr2002                    :

 POSCAR: graphene
  positions in direct lattice
 exchange correlation table for  LEXCH =        8
   RHO(1)=    0.500       N(1)  =     2000
   RHO(2)=  100.500       N(2)  =     4000

 ion  position               nearest neighbor table
   1  0.000  0.000  0.000-   2 1.42   2 1.42   2 1.42
   2  0.667  0.667  0.000-   1 1.42   1 1.42   1 1.42

  LATTYP: Found a base centered orthorhombic cell.
 ALAT       =     2.4600000000
 B/A-ratio  =     1.7320000000
 C/A-ratio  =    20.0000000000

  Lattice vectors:

 A1 = (   2.1303600000,  -1.2300000000,   0.0000000000)
 A2 = (  -2.1303600000,  -1.2300000000,   0.0000000000)
 A3 = (   0.0000000000,   0.0000000000, -49.2000000000)

Analysis of symmetry for initial positions (statically):
 Subroutine PRICEL returns:
 Original cell was already a primitive cell.

 Routine SETGRP: Setting up the symmetry group for a
 base centered orthorhombic supercell.

 Subroutine GETGRP returns: Found  8 space group operations
 (whereof  4 operations were pure point group operations)
 out of a pool of  8 trial point group operations.

The static configuration has the point symmetry C_2v.
 The point group associated with its full space group is D_2h.

Analysis of symmetry for dynamics (positions and initial velocities):
 Subroutine PRICEL returns:
 Original cell was already a primitive cell.

 Routine SETGRP: Setting up the symmetry group for a
 base centered orthorhombic supercell.

 Subroutine GETGRP returns: Found  8 space group operations
 (whereof  4 operations were pure point group operations)
 out of a pool of  8 trial point group operations.

The dynamic configuration has the point symmetry C_2v.
 The point group associated with its full space group is D_2h.

 Subroutine INISYM returns: Found  8 space group operations
 (whereof  4 operations are pure point group operations),
 and found     1 'primitive' translations

 KPOINTS: K-path for graphene
  interpolating k-points between supplied coordinates
  k-points in reciprocal lattice
Space group operators:
 irot       det(A)        alpha          n_x          n_y          n_z        tau_x        tau_y        tau_z
    1     1.000000     0.000000     1.000000     0.000000     0.000000     0.000000     0.000000     0.000000
    2    -1.000000   180.000000     0.000000     0.000000     1.000000     0.000000     0.000000     0.000000
    3     1.000000   180.000000     1.000000     0.000000     0.000000     0.000000     0.000000     0.000000
    4    -1.000000   180.000000     0.000000     1.000000     0.000000     0.000000     0.000000     0.000000
    5    -1.000000     0.000000     1.000000     0.000000     0.000000     0.666700    -0.333300     0.000000
    6     1.000000   180.000000     0.000000     0.000000     1.000000     0.666700    -0.333300     0.000000
    7    -1.000000   180.000000     1.000000     0.000000     0.000000     0.666700    -0.333300     0.000000
    8     1.000000   180.000000     0.000000     1.000000     0.000000     0.666700    -0.333300     0.000000

 SYSTEM =  graphene (single layer)
 POSCAR =  graphene

 Startparameter for this run:
   NWRITE =      2    write-flag & timer
   PREC   = normal    normal or accurate (medium, high low for compatibility)
   ISTART =      0    job   : 0-new  1-cont  2-samecut
   ICHARG =      2    charge: 1-file 2-atom 10-const
   ISPIN  =      1    spin polarized calculation?
   LNONCOLLINEAR =      F non collinear calculations
   LSORBIT =      F    spin-orbit coupling
   INIWAV =      1    electr: 0-lowe 1-rand  2-diag
   LASPH  =      F    aspherical Exc in radial PAW
   METAGGA=      F    non-selfconsistent MetaGGA calc.

 Electronic Relaxation 1
   ENCUT  =  300.0 eV  22.05 Ry    4.70 a.u.   3.47  3.47 69.48*2*pi/ulx,y,z
   ENINI  =  300.0     initial cutoff
   ENAUG  =  644.9 eV  augmentation charge cutoff
   NELM   =     60;   NELMIN=  2; NELMDL= -5     # of ELM steps
   EDIFF  = 0.1E-05   stopping-criterion for ELM
   LREAL  =      F    real-space projection
   NLSPLINE    = F    spline interpolate recip. space projectors
   LCOMPAT=      F    compatible to vasp.4.4
   GGA_COMPAT  = T    GGA compatible to vasp.4.4-vasp.4.6
   LMAXPAW     = -100 max onsite density
   LMAXMIX     =    2 max onsite mixed and CHGCAR
   VOSKOWN=      0    Vosko Wilk Nusair interpolation
   ROPT   =    0.00000
 Ionic relaxation
   EDIFFG = 0.1E-04   stopping-criterion for IOM
   NSW    =      0    number of steps for IOM
   NBLOCK =      1;   KBLOCK =      1    inner block; outer block
   IBRION =     -1    ionic relax: 0-MD 1-quasi-New 2-CG
   NFREE  =      0    steps in history (QN), initial steepest desc. (CG)
   ISIF   =      2    stress and relaxation
   IWAVPR =     10    prediction:  0-non 1-charg 2-wave 3-comb
   ISYM   =      2    0-nonsym 1-usesym 2-fastsym
   LCORR  =      T    Harris-Foulkes like correction to forces

   POTIM  = 0.5000    time-step for ionic-motion
   TEIN   =    0.0    initial temperature
   TEBEG  =    0.0;   TEEND  =   0.0 temperature during run
   SMASS  =  -3.00    Nose mass-parameter (am)
   estimated Nose-frequenzy (Omega)   =  0.10E-29 period in steps =****** mass=  -0.138E-27a.u.
   SCALEE = 1.0000    scale energy and forces
   NPACO  =    256;   APACO  = 16.0  distance and # of slots for P.C.
   PSTRESS=    0.0 pullay stress

  Mass of Ions in am
   POMASS =  12.01
  Ionic Valenz
   ZVAL   =   4.00
  Atomic Wigner-Seitz radii
  virtual crystal weights
   VCA    =   1.00
   NELECT =       8.0000    total number of electrons
   NUPDOWN=      -1.0000    fix difference up-down

 DOS related values:
   EMIN   =  10.00;   EMAX   =-10.00  energy-range for DOS
   EFERMI =   0.00
   ISMEAR =     0;   SIGMA  =   0.20  broadening in eV -4-tet -1-fermi 0-gaus

 Electronic relaxation 2 (details)
   IALGO  =     38    algorithm
   LDIAG  =      T    sub-space diagonalisation (order eigenvalues)
   LSUBROT=      F    optimize rotation matrix (better conditioning)
   TURBO    =      0    0=normal 1=particle mesh
   IRESTART =      0    0=no restart 2=restart with 2 vectors
   NREBOOT  =      0    no. of reboots
   NMIN     =      0    reboot dimension
   EREF     =   0.00    reference energy to select bands
   IMIX   =      4    mixing-type and parameters
     AMIX     =   0.40;   BMIX     =  1.00
     AMIX_MAG =   1.60;   BMIX_MAG =  1.00
     AMIN     =   0.10
     WC   =   100.;   INIMIX=   1;  MIXPRE=   1;  MAXMIX= -45

 Intra band minimization:
   WEIMIN = 0.0000     energy-eigenvalue tresh-hold
   EBREAK =  0.31E-07  absolut break condition
   DEPER  =   0.30     relativ break condition

   TIME   =   0.40     timestep for ELM

  volume/ion in A,a.u.               =     128.92       870.00
  Fermi-wavevector in a.u.,A,eV,Ry     =   0.514423  0.972119  3.600524  0.264631
  Thomas-Fermi vector in A             =   1.529375

 Write flags
   LWAVE        =      T    write WAVECAR
   LDOWNSAMPLE  =      F    k-point downsampling of WAVECAR
   LCHARG       =      F    write CHGCAR
   LVTOT        =      F    write LOCPOT, total local potential
   LVHAR        =      F    write LOCPOT, Hartree potential only
   LELF         =      F    write electronic localiz. function (ELF)
   LORBIT       =      0    0 simple, 1 ext, 2 COOP (PROOUT), +10 PAW based schemes

 Dipole corrections
   LMONO  =      F    monopole corrections only (constant potential shift)
   LDIPOL =      F    correct potential (dipole corrections)
   IDIPOL =      0    1-x, 2-y, 3-z, 4-all directions
   EPSILON=  1.0000000 bulk dielectric constant

 Exchange correlation treatment:
   GGA     =    --    GGA type
   VOSKOWN=      0    Vosko Wilk Nusair interpolation
   LHFCALC =     F    Hartree Fock is set to
   LHFONE  =     F    Hartree Fock one center treatment
   AEXX    =    0.0000 exact exchange contribution

 Linear response parameters
   LEPSILON=     F    determine dielectric tensor
   LRPA    =     F    only Hartree local field effects (RPA)
   LNABLA  =     F    use nabla operator in PAW spheres
   LVEL    =     F    velocity operator in full k-point grid
   LINTERFAST=   F  fast interpolation
   KINTER  =     0    interpolate to denser k-point grid
   CSHIFT  =0.1000    complex shift for real part using Kramers Kronig
   OMEGAMAX=  -1.0    maximum frequency
   DEG_THRESHOLD= 0.2000000E-02 threshold for treating states as degnerate
   RTIME   =   -0.100 relaxation time in fs
  (WPLASMAI=    0.000 imaginary part of plasma frequency in eV, 0.658/RTIME)
   DFIELD  = 0.0000000 0.0000000 0.0000000 field for delta impulse in time

 Orbital magnetization related:
   ORBITALMAG=     F  switch on orbital magnetization
   LCHIMAG   =     F  perturbation theory with respect to B field
   DQ        =  0.001000  dq finite difference perturbation B field
   LLRAUG    =     F  two centre corrections for induced B field

 Static calculation
 charge density and potential will be updated during run
 non-spin polarized calculation
 Variant of blocked Davidson
 Davidson routine will perform the subspace rotation
 perform sub-space diagonalisation
    after iterative eigenvector-optimisation
 modified Broyden-mixing scheme, WC =      100.0
 initial mixing is a Kerker type mixing with AMIX =  0.4000 and BMIX =      1.0000
 Hartree-type preconditioning will be used
 using additional bands            4
 reciprocal scheme for non local part
 calculate Harris-corrections to forces
   (improved forces if not selfconsistent)
 use gradient corrections
 use of overlap-Matrix (Vanderbilt PP)
 Gauss-broadening in eV      SIGMA  =   0.20

  energy-cutoff  :      300.00
  volume of cell :      257.84
      direct lattice vectors                 reciprocal lattice vectors
     2.130360000 -1.230000000  0.000000000     0.234702116 -0.406504065  0.000000000
     2.130360000  1.230000000  0.000000000     0.234702116  0.406504065  0.000000000
     0.000000000  0.000000000 49.200000000     0.000000000  0.000000000  0.020325203

  length of vectors
     2.459945879  2.459945879 49.200000000     0.469393905  0.469393905  0.020325203

 k-points in units of 2pi/SCALE and weight: K-path for graphene
   0.00000000  0.00000000  0.00000000       0.003
   0.00583199  0.00336707  0.00000000       0.003
   0.01166398  0.00673414  0.00000000       0.003
   0.01749598  0.01010121  0.00000000       0.003
   0.02332797  0.01346828  0.00000000       0.003
   0.02915996  0.01683535  0.00000000       0.003
   0.03499195  0.02020242  0.00000000       0.003
   0.04082394  0.02356949  0.00000000       0.003
   0.04665594  0.02693657  0.00000000       0.003
[...]
   0.00000000  0.00000000  0.00000000
   0.66670000  0.66670000  0.00000000

 position of ions in cartesian coordinates  (Angst):
   0.00000000  0.00000000  0.00000000
   2.84062202  0.00000000  0.00000000

 k-point  1 :   0.0000 0.0000 0.0000  plane waves:    3091
 k-point  2 :   0.0034 0.0067 0.0000  plane waves:    3083
 k-point  3 :   0.0067 0.0135 0.0000  plane waves:    3071
 k-point  4 :   0.0101 0.0202 0.0000  plane waves:    3075
 k-point  5 :   0.0135 0.0269 0.0000  plane waves:    3087
 k-point  6 :   0.0168 0.0337 0.0000  plane waves:    3087
 k-point  7 :   0.0202 0.0404 0.0000  plane waves:    3095
 k-point  8 :   0.0236 0.0471 0.0000  plane waves:    3091
 k-point  9 :   0.0269 0.0539 0.0000  plane waves:    3095
 k-point 10 :   0.0303 0.0606 0.0000  plane waves:    3093
 k-point 11 :   0.0337 0.0673 0.0000  plane waves:    3093
 k-point 12 :   0.0370 0.0741 0.0000  plane waves:    3101
 k-point 13 :   0.0404 0.0808 0.0000  plane waves:    3105
 k-point 14 :   0.0438 0.0875 0.0000  plane waves:    3103
 k-point 15 :   0.0471 0.0943 0.0000  plane waves:    3103
 k-point 16 :   0.0505 0.1010 0.0000  plane waves:    3107
 k-point 17 :   0.0539 0.1077 0.0000  plane waves:    3103
 k-point 18 :   0.0572 0.1145 0.0000  plane waves:    3103
 k-point 19 :   0.0606 0.1212 0.0000  plane waves:    3099
 k-point 20 :   0.0640 0.1279 0.0000  plane waves:    3097
 k-point 21 :   0.0673 0.1347 0.0000  plane waves:    3101
 k-point 22 :   0.0707 0.1414 0.0000  plane waves:    3101
 k-point 23 :   0.0741 0.1481 0.0000  plane waves:    3109
 k-point 24 :   0.0774 0.1549 0.0000  plane waves:    3103
 k-point 25 :   0.0808 0.1616 0.0000  plane waves:    3105
 k-point 26 :   0.0842 0.1684 0.0000  plane waves:    3107
 k-point 27 :   0.0875 0.1751 0.0000  plane waves:    3099
 k-point 28 :   0.0909 0.1818 0.0000  plane waves:    3107
 k-point 29 :   0.0943 0.1886 0.0000  plane waves:    3109
 k-point 30 :   0.0976 0.1953 0.0000  plane waves:    3105
 k-point 31 :   0.1010 0.2020 0.0000  plane waves:    3109
 k-point 32 :   0.1044 0.2088 0.0000  plane waves:    3107
 k-point 33 :   0.1077 0.2155 0.0000  plane waves:    3105
 k-point 34 :   0.1111 0.2222 0.0000  plane waves:    3105
 k-point 35 :   0.1145 0.2290 0.0000  plane waves:    3093
 k-point 36 :   0.1178 0.2357 0.0000  plane waves:    3093
 k-point 37 :   0.1212 0.2424 0.0000  plane waves:    3097
 k-point 38 :   0.1246 0.2492 0.0000  plane waves:    3085
 k-point 39 :   0.1279 0.2559 0.0000  plane waves:    3089
 k-point 40 :   0.1313 0.2626 0.0000  plane waves:    3085
 k-point 41 :   0.1347 0.2694 0.0000  plane waves:    3083
 k-point 42 :   0.1380 0.2761 0.0000  plane waves:    3079
 k-point 43 :   0.1414 0.2828 0.0000  plane waves:    3071
 k-point 44 :   0.1448 0.2896 0.0000  plane waves:    3079
 k-point 45 :   0.1481 0.2963 0.0000  plane waves:    3083
 k-point 46 :   0.1515 0.3030 0.0000  plane waves:    3083
 k-point 47 :   0.1549 0.3098 0.0000  plane waves:    3081
 k-point 48 :   0.1582 0.3165 0.0000  plane waves:    3081
 k-point 49 :   0.1616 0.3232 0.0000  plane waves:    3077
 k-point 50 :   0.1650 0.3300 0.0000  plane waves:    3073
 k-point 51 :   0.1683 0.3367 0.0000  plane waves:    3067
 k-point 52 :   0.1717 0.3434 0.0000  plane waves:    3063
 k-point 53 :   0.1751 0.3502 0.0000  plane waves:    3063
 k-point 54 :   0.1784 0.3569 0.0000  plane waves:    3055
 k-point 55 :   0.1818 0.3636 0.0000  plane waves:    3053
 k-point 56 :   0.1852 0.3704 0.0000  plane waves:    3053
 k-point 57 :   0.1886 0.3771 0.0000  plane waves:    3049
 k-point 58 :   0.1919 0.3838 0.0000  plane waves:    3041
 k-point 59 :   0.1953 0.3906 0.0000  plane waves:    3041
 k-point 60 :   0.1987 0.3973 0.0000  plane waves:    3037
[...]
 k-point 85 :   0.2828 0.5657 0.0000  plane waves:    2970
 k-point 86 :   0.2862 0.5724 0.0000  plane waves:    2968
 k-point 87 :   0.2896 0.5791 0.0000  plane waves:    2970
 k-point 88 :   0.2929 0.5859 0.0000  plane waves:    2974
 k-point 89 :   0.2963 0.5926 0.0000  plane waves:    2964
 k-point 90 :   0.2997 0.5993 0.0000  plane waves:    2952
 k-point 91 :   0.3030 0.6061 0.0000  plane waves:    2950
 k-point 92 :   0.3064 0.6128 0.0000  plane waves:    2952
 k-point 93 :   0.3098 0.6195 0.0000  plane waves:    2954
 k-point 94 :   0.3131 0.6263 0.0000  plane waves:    2958
 k-point 95 :   0.3165 0.6330 0.0000  plane waves:    2960
 k-point 96 :   0.3199 0.6397 0.0000  plane waves:    2956
 k-point 97 :   0.3232 0.6465 0.0000  plane waves:    2962
 k-point 98 :   0.3266 0.6532 0.0000  plane waves:    2962
 k-point 99 :   0.3300 0.6599 0.0000  plane waves:    2960
 k-point ** :   0.3333 0.6667 0.0000  plane waves:    2964
 k-point ** :   0.3333 0.6667 0.0000  plane waves:    2964
 k-point ** :   0.3350 0.6599 0.0000  plane waves:    2962
 k-point ** :   0.3367 0.6532 0.0000  plane waves:    2956
 k-point ** :   0.3384 0.6465 0.0000  plane waves:    2958
 k-point ** :   0.3401 0.6397 0.0000  plane waves:    2956
 k-point ** :   0.3417 0.6330 0.0000  plane waves:    2958
 k-point ** :   0.3434 0.6263 0.0000  plane waves:    2954
 k-point ** :   0.3451 0.6195 0.0000  plane waves:    2967
 k-point ** :   0.3468 0.6128 0.0000  plane waves:    2970
 k-point ** :   0.3485 0.6061 0.0000  plane waves:    2980
 k-point ** :   0.3502 0.5993 0.0000  plane waves:    2982
 k-point ** :   0.3518 0.5926 0.0000  plane waves:    2984
 k-point ** :   0.3535 0.5859 0.0000  plane waves:    2988
 k-point ** :   0.3552 0.5791 0.0000  plane waves:    2994
 k-point ** :   0.3569 0.5724 0.0000  plane waves:    2996
 k-point ** :   0.3586 0.5657 0.0000  plane waves:    2996
 k-point ** :   0.3603 0.5589 0.0000  plane waves:    2998
 k-point ** :   0.3620 0.5522 0.0000  plane waves:    2998
 k-point ** :   0.3636 0.5455 0.0000  plane waves:    3000
 k-point ** :   0.3653 0.5387 0.0000  plane waves:    2994
 k-point ** :   0.3670 0.5320 0.0000  plane waves:    2992
 k-point ** :   0.3687 0.5253 0.0000  plane waves:    2983
 k-point ** :   0.3704 0.5185 0.0000  plane waves:    2989
 k-point ** :   0.3721 0.5118 0.0000  plane waves:    2987
 k-point ** :   0.3737 0.5051 0.0000  plane waves:    2995
 k-point ** :   0.3754 0.4983 0.0000  plane waves:    2995
 k-point ** :   0.3771 0.4916 0.0000  plane waves:    2997
 k-point ** :   0.3788 0.4849 0.0000  plane waves:    2997
 k-point ** :   0.3805 0.4781 0.0000  plane waves:    3001
 k-point ** :   0.3822 0.4714 0.0000  plane waves:    2995
 k-point ** :   0.3838 0.4646 0.0000  plane waves:    3001
 k-point ** :   0.3855 0.4579 0.0000  plane waves:    2997
 k-point ** :   0.3872 0.4512 0.0000  plane waves:    3006
 k-point ** :   0.3889 0.4444 0.0000  plane waves:    3012
 k-point ** :   0.3906 0.4377 0.0000  plane waves:    3010
 k-point ** :   0.3923 0.4310 0.0000  plane waves:    3014
 k-point ** :   0.3939 0.4242 0.0000  plane waves:    3012
 k-point ** :   0.3956 0.4175 0.0000  plane waves:    3018
 k-point ** :   0.3973 0.4108 0.0000  plane waves:    3014
 k-point ** :   0.3990 0.4040 0.0000  plane waves:    3018
 k-point ** :   0.4007 0.3973 0.0000  plane waves:    3024
 k-point ** :   0.4024 0.3906 0.0000  plane waves:    3020
 k-point ** :   0.4040 0.3838 0.0000  plane waves:    3020
 k-point ** :   0.4057 0.3771 0.0000  plane waves:    3020
 k-point ** :   0.4074 0.3704 0.0000  plane waves:    3023
 k-point ** :   0.4091 0.3636 0.0000  plane waves:    3029
 k-point ** :   0.4108 0.3569 0.0000  plane waves:    3025
 k-point ** :   0.4125 0.3502 0.0000  plane waves:    3025
 k-point ** :   0.4141 0.3434 0.0000  plane waves:    3027
 k-point ** :   0.4158 0.3367 0.0000  plane waves:    3031
 k-point ** :   0.4175 0.3300 0.0000  plane waves:    3025
 k-point ** :   0.4192 0.3232 0.0000  plane waves:    3031
 k-point ** :   0.4209 0.3165 0.0000  plane waves:    3031
 k-point ** :   0.4226 0.3098 0.0000  plane waves:    3033
 k-point ** :   0.4242 0.3030 0.0000  plane waves:    3029
 k-point ** :   0.4259 0.2963 0.0000  plane waves:    3025
 k-point ** :   0.4276 0.2896 0.0000  plane waves:    3029
 k-point ** :   0.4293 0.2828 0.0000  plane waves:    3027
 k-point ** :   0.4310 0.2761 0.0000  plane waves:    3019
[...]
 k-point ** :   0.0707 0.0000 0.0000  plane waves:    3096
 k-point ** :   0.0657 0.0000 0.0000  plane waves:    3096
 k-point ** :   0.0606 0.0000 0.0000  plane waves:    3096
 k-point ** :   0.0556 0.0000 0.0000  plane waves:    3094
 k-point ** :   0.0505 0.0000 0.0000  plane waves:    3090
 k-point ** :   0.0455 0.0000 0.0000  plane waves:    3086
 k-point ** :   0.0404 0.0000 0.0000  plane waves:    3086
 k-point ** :   0.0354 0.0000 0.0000  plane waves:    3084
 k-point ** :   0.0303 0.0000 0.0000  plane waves:    3084
 k-point ** :   0.0253 0.0000 0.0000  plane waves:    3082
 k-point ** :   0.0202 0.0000 0.0000  plane waves:    3072
 k-point ** :   0.0152 0.0000 0.0000  plane waves:    3076
 k-point ** :   0.0101 0.0000 0.0000  plane waves:    3076
 k-point ** :   0.0051 0.0000 0.0000  plane waves:    3079
 k-point ** :   0.0000 0.0000 0.0000  plane waves:    3091

 maximum and minimum number of plane-waves per node :      3122     2950

 maximum number of plane-waves:      3122
 maximum index in each direction:
   IXMAX=    3   IYMAX=    3   IZMAX=   69
   IXMIN=   -3   IYMIN=   -4   IZMIN=  -69

 serial   3D FFT for wavefunctions
 parallel 3D FFT for charge:
    minimum data exchange during FFTs selected (reduces bandwidth)

 Broyden mixing: mesh for mixing (old mesh)
   NGX =  7   NGY =  7   NGZ =139
  (NGX  = 20   NGY  = 20   NGZ  =420)
  gives a total of   6811 points

 initial charge density was supplied:
 charge density of overlapping atoms calculated
 number of electron       8.0000000 magnetization
 keeping initial charge density in first step

 Maximum index for augmentation-charges          947 (set IRDMAX)

 First call to EWALD:  gamma=   0.278
 Maximum number of real-space cells 7x 7x 1
 Maximum number of reciprocal cells 1x 1x18

--------------------------------------- Iteration      1(   1)  ---------------------------------------

 eigenvalue-minimisations  :  8200
 total energy-change (2. order) : 0.1147202E+02  (-0.2460165E+03)
 number of electron       8.0000000 magnetization
 augmentation part        8.0000000 magnetization

 Free energy of the ion-electron system (eV)
  alpha Z        PSCENC =         1.26403377
  Ewald energy   TEWEN  =      3991.07545412
  -Hartree energ DENC   =     -4192.19146066
  -exchange      EXHF   =         0.00000000
  -V(xc)+E(xc)   XCENC  =        27.58818228
  PAW double counting   =        75.66288619      -77.96384553
  entropy T*S    EENTRO =        -0.01679711
  eigenvalues    EBANDS =      -107.74623760
  atomic energy  EATOM  =       293.79980732
  Solvation  Ediel_sol  =         0.00000000
  free energy    TOTEN  =        11.47202277 eV

  energy without entropy =       11.48881988  energy(sigma->0) =       11.48042132

[...]

 eigenvalue-minimisations  :  7528
 total energy-change (2. order) :-0.2844258E+02  (-0.2546033E+02)
 number of electron       8.0000000 magnetization
 augmentation part        8.0000000 magnetization

[...]

 Broyden mixing:
  rms(total) = 0.57240E+00    rms(broyden)= 0.57189E+00
  rms(prec ) = 0.58024E+00
  weight for this iteration     100.00

[...]

 eigenvalues of (default mixing * dielectric matrix)
  average eigenvalue GAMMA=   2.1105
  2.1105

[...]

 eigenvalue-minimisations  :  7184
 total energy-change (2. order) : 0.1098805E-02  (-0.1553734E-03)
 number of electron       7.9999990 magnetization
 augmentation part        0.1915657 magnetization

[...]

 Broyden mixing:
  rms(total) = 0.68101E-05    rms(broyden)= 0.68000E-05
  rms(prec ) = 0.78280E-05
  weight for this iteration     100.00

 eigenvalues of (default mixing * dielectric matrix)
  average eigenvalue GAMMA=   3.0685
  9.3517  7.2562  5.2559  4.0036  3.0090  2.5074  2.5074  2.0214  2.0214  0.9612
  0.9965  1.0307  1.0185  1.0185

[...]

--------------------------------------- Iteration      1(  20)  ---------------------------------------

 eigenvalue-minimisations  :  7344
 total energy-change (2. order) :-0.3305312E-06  (-0.8250611E-10)
 number of electron       7.9999990 magnetization
 augmentation part        0.1914383 magnetization

 Free energy of the ion-electron system (eV)
  alpha Z        PSCENC =         1.26403377
  Ewald energy   TEWEN  =      3991.07545412
  -Hartree energ DENC   =     -4228.49820475
  -exchange      EXHF   =         0.00000000
  -V(xc)+E(xc)   XCENC  =        28.82200115
  PAW double counting   =       140.41968968     -142.91357148
  entropy T*S    EENTRO =        -0.00330765
  eigenvalues    EBANDS =      -101.72427247
  atomic energy  EATOM  =       293.79980732
  Solvation  Ediel_sol  =         0.00000000
  free energy    TOTEN  =       -17.75837031 eV

  energy without entropy =      -17.75506266  energy(sigma->0) =      -17.75671649

 average (electrostatic) potential at core
  the test charge radii are     0.6991
  (the norm of the test charge is              1.0000)
       1 -59.2016       2 -59.2020

 E-fermi :  -3.6004     XC(G=0):  -1.1185     alpha+bet : -0.7787

 k-point     1 :       0.0000    0.0000    0.0000
  band No.  band energies     occupation
      1     -23.2689      2.00000
      2     -11.3148      2.00000
      3      -6.6649      2.00000
      4      -6.5964      2.00000
      5      -0.4170      0.00000
      6       0.2351      0.00000
      7       0.3624      0.00000
      8       0.4539      0.00000

[...]

 k-point   300 :       0.0000    0.0000    0.0000
  band No.  band energies     occupation
      1     -23.2689      2.00000
      2     -11.3148      2.00000
      3      -6.6649      2.00000
      4      -6.5964      2.00000
      5      -0.4170      0.00000
      6       0.2351      0.00000
      7       0.3624      0.00000
      8       0.4539      0.00000

 soft charge-density along one line, spin component           1
         0         1         2         3         4         5         6         7         8         9
 total charge-density along one line

------------------------ aborting loop because EDIFF is reached ----------------------------------------

  FORCE on cell =-STRESS in cart. coord.  units (eV):
  Direction    XX          YY          ZZ          XY          YZ          ZX
  Alpha Z     1.26403     1.26403     1.26403
  Ewald    4260.64116  4260.57459 -4530.14061    -0.00000     0.00000     0.00000
  Hartree  4216.88207  4217.29083 -4205.67433    -0.00000    -0.00000    -0.00000
  E(xc)     -29.25811   -29.24128   -30.40945    -0.00000     0.00000     0.00000
  Local   -8562.90132 -8564.28826  8633.43751     0.00000     0.00000    -0.00000
  n-local    -8.35720    -8.14578    -7.11474    -0.06015    -0.00000     0.00000
  augment    -0.77028    -0.76421    -0.71307     0.00000     0.00000     0.00000
  Kinetic   123.94620   120.32586   137.15183     1.40030     0.00000    -0.00000
  Fock        0.00000     0.00000     0.00000     0.00000     0.00000     0.00000
  Total       1.44655    -2.98422    -2.19881     0.00000     0.00000     0.00000
  in kB       8.98857   -18.54334   -13.66299     0.00000     0.00000     0.00000

 VOLUME and BASIS-vectors are now :
  energy-cutoff  :      300.00
  volume of cell :      257.84
      direct lattice vectors                 reciprocal lattice vectors
     2.130360000 -1.230000000  0.000000000     0.234702116 -0.406504065  0.000000000
     2.130360000  1.230000000  0.000000000     0.234702116  0.406504065  0.000000000
     0.000000000  0.000000000 49.200000000     0.000000000  0.000000000  0.020325203

  length of vectors
     2.459945879  2.459945879 49.200000000     0.469393905  0.469393905  0.020325203

 FORCES acting on ions
    electron-ion (+dipol)            ewald-force                    non-local-force                 convergence-correction
   0.104E+01 -.577E-14 -.439E-15   0.319E-01 -.464E-14 0.000E+00   0.368E+00 -.278E-16 0.000E+00   0.877E-05 -.105E-16 -.145E-12
   -.104E+01 -.744E-14 -.395E-15   -.319E-01 0.127E-13 0.000E+00   -.368E+00 0.416E-16 0.000E+00   -.877E-05 0.125E-14 -.145E-12
   -.368E-04 -.132E-13 -.835E-15   -.153E-13 0.810E-14 0.000E+00   -.111E-15 0.139E-16 0.000E+00   0.884E-11 0.123E-14 -.291E-12

 POSITION                                       TOTAL-FORCE (eV/Angst)
      0.00000      0.00000      0.00000         1.443754      0.000000      0.000000
      2.84062      0.00000      0.00000        -1.443754      0.000000      0.000000
    total drift:                               -0.000037     -0.000000     -0.000000

  FREE ENERGIE OF THE ION-ELECTRON SYSTEM (eV)
  free  energy   TOTEN  =       -17.75837031 eV

  energy  without entropy=      -17.75506266  energy(sigma->0) =      -17.75671649

 writing wavefunctions