 vasp.5.4.4.18Apr17-6-g9f103f2a35 (build May 20 2018 16:52:39) complex

 executed on             LinuxIFC date 2022.10.21  19:36:53

 INCAR:
 POTCAR:    PAW Si
 POTCAR:    PAW Si
   VRHFIN =Si: s2p2

   TITEL  = PAW Si
   POMASS =   28.085; ZVAL   =    4.000    mass and valenz
   ENMAX  =  245.435; ENMIN  =  184.076 eV
   QCUT   =   -4.247; QGAM   =    8.494    optimization parameters

   Description
     l     E      TYP  RCUT    TYP  RCUT
     0   .000     23  1.900
     0   .000     23  1.900
     1   .000     23  1.900
     1   .000     23  1.900
     2   .000      7  1.900

  PAW Si                                :

 POSCAR: Si
  positions in direct lattice
 exchange correlation table for  LEXCH =        7
   RHO(1)=    0.500       N(1)  =     2000
   RHO(2)=  100.500       N(2)  =     4000

 ion  position               nearest neighbor table
   1  0.000  0.000  0.000-   2 2.34   2 2.34   2 2.34   2 2.34
   2  0.250  0.250  0.250-   1 2.34   1 2.34   1 2.34   1 2.34

  LATTYP: Found a face centered cubic cell.
 ALAT       =     5.4000000000

  Lattice vectors:

 A1 = (   0.0000000000,   2.7000000000,   2.7000000000)
 A2 = (   2.7000000000,   0.0000000000,   2.7000000000)
 A3 = (   2.7000000000,   2.7000000000,   0.0000000000)

Analysis of symmetry for initial positions (statically):
 Subroutine PRICEL returns:
 Original cell was already a primitive cell.

 Routine SETGRP: Setting up the symmetry group for a
 face centered cubic supercell.

 Subroutine GETGRP returns: Found 48 space group operations
 (whereof 24 operations were pure point group operations)
 out of a pool of 48 trial point group operations.

The static configuration has the point symmetry T_d .
 The point group associated with its full space group is O_h .

Analysis of symmetry for dynamics (positions and initial velocities):
 Subroutine PRICEL returns:
 Original cell was already a primitive cell.

 Routine SETGRP: Setting up the symmetry group for a
 face centered cubic supercell.

 Subroutine GETGRP returns: Found 48 space group operations
 (whereof 24 operations were pure point group operations)
 out of a pool of 48 trial point group operations.

The dynamic configuration has the point symmetry T_d .
 The point group associated with its full space group is O_h .

 Subroutine INISYM returns: Found 48 space group operations
 (whereof 24 operations are pure point group operations),
 and found     1 'primitive' translations

 KPOINTS: 30x30x30

Automatic generation of k-mesh.
Space group operators:
 irot       det(A)        alpha          n_x          n_y          n_z        tau_x        tau_y        tau_z
    1     1.000000     0.000000     1.000000     0.000000     0.000000     0.000000     0.000000     0.000000
    2     1.000000   120.000000    -0.577350    -0.577350    -0.577350     0.000000     0.000000     0.000000
    3     1.000000   120.000000     0.577350     0.577350     0.577350     0.000000     0.000000     0.000000
    4    -1.000000    90.000000     0.000000     0.000000    -1.000000     0.000000     0.000000     0.000000
    5    -1.000000   180.000000     0.000000     0.707107     0.707107     0.000000     0.000000     0.000000
    6    -1.000000    90.000000     0.000000     1.000000     0.000000     0.000000     0.000000     0.000000
    7     1.000000   180.000000     0.000000     0.000000     1.000000     0.000000     0.000000     0.000000
    8     1.000000   120.000000    -0.577350     0.577350     0.577350     0.000000     0.000000     0.000000
    9     1.000000   120.000000    -0.577350     0.577350    -0.577350     0.000000     0.000000     0.000000
   10    -1.000000    90.000000     0.000000     0.000000     1.000000     0.000000     0.000000     0.000000
   11    -1.000000    90.000000    -1.000000     0.000000     0.000000     0.000000     0.000000     0.000000
   12    -1.000000   180.000000     0.707107     0.000000     0.707107     0.000000     0.000000     0.000000
   13     1.000000   120.000000     0.577350    -0.577350     0.577350     0.000000     0.000000     0.000000
   14     1.000000   120.000000    -0.577350    -0.577350     0.577350     0.000000     0.000000     0.000000
   15     1.000000   180.000000     1.000000     0.000000     0.000000     0.000000     0.000000     0.000000
   16    -1.000000    90.000000     0.000000    -1.000000     0.000000     0.000000     0.000000     0.000000
   17    -1.000000   180.000000     0.707107     0.707107     0.000000     0.000000     0.000000     0.000000
   18    -1.000000    90.000000     1.000000     0.000000     0.000000     0.000000     0.000000     0.000000
   19     1.000000   120.000000     0.577350    -0.577350    -0.577350     0.000000     0.000000     0.000000
   20     1.000000   180.000000     0.000000     1.000000     0.000000     0.000000     0.000000     0.000000
   21     1.000000   120.000000     0.577350     0.577350    -0.577350     0.000000     0.000000     0.000000
   22    -1.000000   180.000000     0.000000    -0.707107     0.707107     0.000000     0.000000     0.000000
   23    -1.000000   180.000000     0.707107    -0.707107     0.000000     0.000000     0.000000     0.000000
   24    -1.000000   180.000000     0.707107     0.000000    -0.707107     0.000000     0.000000     0.000000
   25    -1.000000     0.000000     1.000000     0.000000     0.000000     0.250000     0.250000     0.250000
   26    -1.000000   120.000000    -0.577350    -0.577350    -0.577350     0.250000     0.250000     0.250000
   27    -1.000000   120.000000     0.577350     0.577350     0.577350     0.250000     0.250000     0.250000
   28     1.000000    90.000000     0.000000     0.000000    -1.000000     0.250000     0.250000     0.250000
   29     1.000000   180.000000     0.000000     0.707107     0.707107     0.250000     0.250000     0.250000
   30     1.000000    90.000000     0.000000     1.000000     0.000000     0.250000     0.250000     0.250000
   31    -1.000000   180.000000     0.000000     0.000000     1.000000     0.250000     0.250000     0.250000
   32    -1.000000   120.000000    -0.577350     0.577350     0.577350     0.250000     0.250000     0.250000
   33    -1.000000   120.000000    -0.577350     0.577350    -0.577350     0.250000     0.250000     0.250000
   34     1.000000    90.000000     0.000000     0.000000     1.000000     0.250000     0.250000     0.250000
   35     1.000000    90.000000    -1.000000     0.000000     0.000000     0.250000     0.250000     0.250000
   36     1.000000   180.000000     0.707107     0.000000     0.707107     0.250000     0.250000     0.250000
   37    -1.000000   120.000000     0.577350    -0.577350     0.577350     0.250000     0.250000     0.250000
   38    -1.000000   120.000000    -0.577350    -0.577350     0.577350     0.250000     0.250000     0.250000
   39    -1.000000   180.000000     1.000000     0.000000     0.000000     0.250000     0.250000     0.250000
   40     1.000000    90.000000     0.000000    -1.000000     0.000000     0.250000     0.250000     0.250000
   41     1.000000   180.000000     0.707107     0.707107     0.000000     0.250000     0.250000     0.250000
   42     1.000000    90.000000     1.000000     0.000000     0.000000     0.250000     0.250000     0.250000
   43    -1.000000   120.000000     0.577350    -0.577350    -0.577350     0.250000     0.250000     0.250000
   44    -1.000000   180.000000     0.000000     1.000000     0.000000     0.250000     0.250000     0.250000
   45    -1.000000   120.000000     0.577350     0.577350    -0.577350     0.250000     0.250000     0.250000
   46     1.000000   180.000000     0.000000    -0.707107     0.707107     0.250000     0.250000     0.250000
   47     1.000000   180.000000     0.707107    -0.707107     0.000000     0.250000     0.250000     0.250000
   48     1.000000   180.000000     0.707107     0.000000    -0.707107     0.250000     0.250000     0.250000

 Subroutine IBZKPT returns following result:

 Found   2480 irreducible k-points:

 Following reciprocal coordinates:
            Coordinates               Weight
  0.016667  0.016667  0.016667     96.000000
  0.050000  0.016667  0.016667    288.000000
  0.083333  0.016667  0.016667    288.000000
  0.116667  0.016667  0.016667    288.000000
  0.150000  0.016667  0.016667    288.000000
  0.183333  0.016667  0.016667    288.000000
  0.216667  0.016667  0.016667    288.000000
  0.250000  0.016667  0.016667    288.000000
  0.283333  0.016667  0.016667    288.000000
  0.316667  0.016667  0.016667    288.000000
  0.350000  0.016667  0.016667    288.000000
  0.383333  0.016667  0.016667    288.000000
  0.416667  0.016667  0.016667    288.000000
  0.450000  0.016667  0.016667    288.000000
  0.483333  0.016667  0.016667    288.000000
 -0.483333  0.016667  0.016667    288.000000
 -0.450000  0.016667  0.016667    288.000000
 -0.416667  0.016667  0.016667    288.000000
 -0.383333  0.016667  0.016667    288.000000
 -0.350000  0.016667  0.016667    288.000000
 -0.316667  0.016667  0.016667    288.000000
 -0.283333  0.016667  0.016667    288.000000
 -0.250000  0.016667  0.016667    288.000000
 -0.216667  0.016667  0.016667    288.000000
 -0.183333  0.016667  0.016667    288.000000
 -0.150000  0.016667  0.016667    288.000000
 -0.116667  0.016667  0.016667    288.000000
 -0.083333  0.016667  0.016667    288.000000
 -0.050000  0.016667  0.016667    288.000000
 -0.016667  0.016667  0.016667    288.000000
  0.050000  0.050000  0.016667    288.000000
  0.083333  0.050000  0.016667    576.000000
  0.116667  0.050000  0.016667    576.000000
  0.150000  0.050000  0.016667    576.000000
  0.183333  0.050000  0.016667    576.000000
  0.216667  0.050000  0.016667    576.000000
  0.250000  0.050000  0.016667    576.000000
  0.283333  0.050000  0.016667    576.000000
  0.316667  0.050000  0.016667    576.000000
  0.350000  0.050000  0.016667    576.000000
  0.383333  0.050000  0.016667    576.000000
  0.416667  0.050000  0.016667    576.000000
  0.450000  0.050000  0.016667    576.000000
  0.483333  0.050000  0.016667    576.000000
 -0.483333  0.050000  0.016667    576.000000
 -0.450000  0.050000  0.016667    576.000000
 -0.416667  0.050000  0.016667    576.000000
 -0.383333  0.050000  0.016667    576.000000
 -0.350000  0.050000  0.016667    576.000000
 -0.316667  0.050000  0.016667    576.000000
 -0.283333  0.050000  0.016667    576.000000
 -0.250000  0.050000  0.016667    576.000000
 -0.216667  0.050000  0.016667    576.000000
 -0.183333  0.050000  0.016667    576.000000
 -0.150000  0.050000  0.016667    576.000000
 -0.116667  0.050000  0.016667    576.000000
 -0.083333  0.050000  0.016667    576.000000
 -0.050000  0.050000  0.016667    576.000000
 -0.016667  0.050000  0.016667    576.000000
  0.083333  0.083333  0.016667    288.000000
[...]
 -0.450000  0.483333  0.416667    576.000000
 -0.416667  0.483333  0.416667    576.000000
 -0.483333 -0.483333  0.416667    288.000000
 -0.450000 -0.483333  0.416667    576.000000
 -0.450000 -0.450000  0.416667    288.000000
  0.450000  0.450000  0.450000     96.000000
  0.483333  0.450000  0.450000    288.000000
 -0.483333  0.450000  0.450000    288.000000
 -0.450000  0.450000  0.450000    288.000000
[...]
 k-point 95 :   0.3500 0.1167 0.0167  plane waves:     339
 k-point 96 :   0.3833 0.1167 0.0167  plane waves:     342
 k-point 97 :   0.4167 0.1167 0.0167  plane waves:     342
 k-point 98 :   0.4500 0.1167 0.0167  plane waves:     342
 k-point 99 :   0.4833 0.1167 0.0167  plane waves:     344
 k-point ** :  -0.4833 0.1167 0.0167  plane waves:     345
 k-point ** :  -0.4500 0.1167 0.0167  plane waves:     347
 k-point ** :  -0.4167 0.1167 0.0167  plane waves:     347
 k-point ** :  -0.3833 0.1167 0.0167  plane waves:     345
 k-point ** :  -0.3500 0.1167 0.0167  plane waves:     345
 k-point ** :  -0.3167 0.1167 0.0167  plane waves:     346
 k-point ** :  -0.2833 0.1167 0.0167  plane waves:     345
 k-point ** :  -0.2500 0.1167 0.0167  plane waves:     343
 k-point ** :  -0.2167 0.1167 0.0167  plane waves:     340
 k-point ** :  -0.1833 0.1167 0.0167  plane waves:     338
 k-point ** :  -0.1500 0.1167 0.0167  plane waves:     339
 k-point ** :  -0.1167 0.1167 0.0167  plane waves:     336
 k-point ** :  -0.0833 0.1167 0.0167  plane waves:     335
 k-point ** :  -0.0500 0.1167 0.0167  plane waves:     334
 k-point ** :  -0.0167 0.1167 0.0167  plane waves:     334
 k-point ** :   0.1500 0.1500 0.0167  plane waves:     338
 k-point ** :   0.1833 0.1500 0.0167  plane waves:     337
 k-point ** :   0.2167 0.1500 0.0167  plane waves:     341
 k-point ** :   0.2500 0.1500 0.0167  plane waves:     340
 k-point ** :   0.2833 0.1500 0.0167  plane waves:     338
 k-point ** :   0.3167 0.1500 0.0167  plane waves:     338
 k-point ** :   0.3500 0.1500 0.0167  plane waves:     337
 k-point ** :   0.3833 0.1500 0.0167  plane waves:     338
 k-point ** :   0.4167 0.1500 0.0167  plane waves:     340
 k-point ** :   0.4500 0.1500 0.0167  plane waves:     341
 k-point ** :   0.4833 0.1500 0.0167  plane waves:     343
 k-point ** :  -0.4833 0.1500 0.0167  plane waves:     345
 k-point ** :  -0.4500 0.1500 0.0167  plane waves:     347
 k-point ** :  -0.4167 0.1500 0.0167  plane waves:     343
 k-point ** :  -0.3833 0.1500 0.0167  plane waves:     346
 k-point ** :  -0.3500 0.1500 0.0167  plane waves:     347
 k-point ** :  -0.3167 0.1500 0.0167  plane waves:     345
 k-point ** :  -0.2833 0.1500 0.0167  plane waves:     347
 k-point ** :  -0.2500 0.1500 0.0167  plane waves:     341
 k-point ** :  -0.2167 0.1500 0.0167  plane waves:     341
 k-point ** :  -0.1833 0.1500 0.0167  plane waves:     338
 k-point ** :  -0.1500 0.1500 0.0167  plane waves:     337
 k-point ** :  -0.1167 0.1500 0.0167  plane waves:     337
 k-point ** :  -0.0833 0.1500 0.0167  plane waves:     338
 k-point ** :  -0.0500 0.1500 0.0167  plane waves:     336
 k-point ** :  -0.0167 0.1500 0.0167  plane waves:     336
 k-point ** :   0.1833 0.1833 0.0167  plane waves:     339
 k-point ** :   0.2167 0.1833 0.0167  plane waves:     342
 k-point ** :   0.2500 0.1833 0.0167  plane waves:     341
 k-point ** :   0.2833 0.1833 0.0167  plane waves:     340
 k-point ** :   0.3167 0.1833 0.0167  plane waves:     338
 k-point ** :   0.3500 0.1833 0.0167  plane waves:     339
 k-point ** :   0.3833 0.1833 0.0167  plane waves:     339
 k-point ** :   0.4167 0.1833 0.0167  plane waves:     339
 k-point ** :   0.4500 0.1833 0.0167  plane waves:     344
 k-point ** :   0.4833 0.1833 0.0167  plane waves:     345
 k-point ** :  -0.4833 0.1833 0.0167  plane waves:     350
 k-point ** :  -0.4500 0.1833 0.0167  plane waves:     348
 k-point ** :  -0.4167 0.1833 0.0167  plane waves:     348
 k-point ** :  -0.3833 0.1833 0.0167  plane waves:     349
 k-point ** :  -0.3500 0.1833 0.0167  plane waves:     347
 k-point ** :  -0.3167 0.1833 0.0167  plane waves:     347
 k-point ** :  -0.2833 0.1833 0.0167  plane waves:     343
 k-point ** :  -0.2500 0.1833 0.0167  plane waves:     342
 k-point ** :  -0.2167 0.1833 0.0167  plane waves:     339
[...]
 k-point ** :  -0.4500 0.4833 0.4167  plane waves:     348
 k-point ** :  -0.4167 0.4833 0.4167  plane waves:     349
 k-point ** :  -0.4833-0.4833 0.4167  plane waves:     344
 k-point ** :  -0.4500-0.4833 0.4167  plane waves:     348
 k-point ** :  -0.4500-0.4500 0.4167  plane waves:     348
 k-point ** :   0.4500 0.4500 0.4500  plane waves:     341
 k-point ** :   0.4833 0.4500 0.4500  plane waves:     343
 k-point ** :  -0.4833 0.4500 0.4500  plane waves:     347
 k-point ** :  -0.4500 0.4500 0.4500  plane waves:     347
 k-point ** :   0.4833 0.4833 0.4500  plane waves:     344
 k-point ** :  -0.4833 0.4833 0.4500  plane waves:     343
 k-point ** :  -0.4500 0.4833 0.4500  plane waves:     346
 k-point ** :  -0.4833-0.4833 0.4500  plane waves:     345
 k-point ** :   0.4833 0.4833 0.4833  plane waves:     344
 k-point ** :  -0.4833 0.4833 0.4833  plane waves:     344

 maximum and minimum number of plane-waves per node :       357      331

 maximum number of plane-waves:       357
 maximum index in each direction:
   IXMAX=    5   IYMAX=    5   IZMAX=    4
   IXMIN=   -5   IYMIN=   -5   IZMIN=   -5

 serial   3D FFT for wavefunctions
 parallel 3D FFT for charge:
    minimum data exchange during FFTs selected (reduces bandwidth)

 Broyden mixing: mesh for mixing (old mesh)
   NGX =  9   NGY =  9   NGZ =  9
  (NGX  = 32   NGY  = 32   NGZ  = 32)
  gives a total of    729 points

 initial charge density was supplied:
 charge density of overlapping atoms calculated
 number of electron       8.0000000 magnetization
 keeping initial charge density in first step

 Maximum index for augmentation-charges         3367 (set IRDMAX)

 First call to EWALD:  gamma=   0.521
 Maximum number of real-space cells 3x 3x 3
 Maximum number of reciprocal cells 3x 3x 3

--------------------------------------- Iteration      1(   1)  ---------------------------------------

 eigenvalue-minimisations  : 40064
 total energy-change (2. order) : 0.2223599E+00  (-0.2233108E+03)
 number of electron       8.0000000 magnetization
 augmentation part        8.0000000 magnetization

 Free energy of the ion-electron system (eV)
  alpha Z        PSCENC =         3.29733825
  Ewald energy   TEWEN  =      -229.83332229
  -Hartree energ DENC   =       -10.82559749
  -exchange      EXHF   =         0.00000000
  -V(xc)+E(xc)   XCENC  =       -19.05370351
  PAW double counting   =        66.48363344      -30.92422537
  entropy T*S    EENTRO =         0.00021926
  eigenvalues    EBANDS =        14.47411858
  atomic energy  EATOM  =       206.60389906
  Solvation  Ediel_sol  =         0.00000000
  free energy    TOTEN  =         0.22235994 eV

  energy without entropy =        0.22214068  energy(sigma->0) =        0.22228685

[...]

 eigenvalue-minimisations  : 61728
 total energy-change (2. order) :-0.1110498E+02  (-0.1060087E+02)
 number of electron       8.0000000 magnetization
 augmentation part        8.0000000 magnetization

[...]

 Broyden mixing:
  rms(total) = 0.30465E+00    rms(broyden)= 0.30461E+00
  rms(prec ) = 0.88957E+00
  weight for this iteration     100.00

[...]

 eigenvalues of (default mixing * dielectric matrix)
  average eigenvalue GAMMA=   2.4357
  2.4357

[...]

 average (electrostatic) potential at core
  the test charge radii are     0.9892
  (the norm of the test charge is              1.0000)
       1 -83.3076       2 -83.3076

 E-fermi :   6.0193     XC(G=0):  -9.4993     alpha+bet :-12.2003

 k-point     1 :       0.0167    0.0167    0.0167
  band No.  band energies     occupation
      1      -6.0858      2.00000
      2       5.9362      1.64045
      3       5.9734      1.37780
      4       5.9734      1.37780
      5       8.5826     -0.00000
      6       8.5826     -0.00000
      7       8.5857     -0.00000
      8       9.5559     -0.00000

[...]

 soft charge-density along one line, spin component           1
         0         1         2         3         4         5         6         7         8         9
 total charge-density along one line

------------------------ aborting loop because EDIFF is reached ----------------------------------------

  FORCE on cell =-STRESS in cart. coord.  units (eV):
  Direction    XX          YY          ZZ          XY          YZ          ZX
  Alpha Z     3.29734     3.29734     3.29734
  Ewald     -76.61114   -76.61114   -76.61114     0.00000     0.00000     0.00000
  Hartree     4.93439     4.93439     4.93439    -0.00000    -0.00000    -0.00000
  E(xc)     -25.58939   -25.58939   -25.58939     0.00001     0.00001     0.00001
  Local     -29.43545   -29.43545   -29.43545     0.00005     0.00005     0.00005
  n-local    78.98418    81.37507    76.15876     1.05935    -1.06146     0.00211
  augment   -11.81087   -11.81087   -11.81087    -0.00004    -0.00004    -0.00004
  Kinetic    58.96991    56.37551    56.29676     0.88357    -0.88550     0.00173
  Fock        0.00000     0.00000     0.00000     0.00000     0.00000     0.00000
  Total       0.83827     0.83827     0.83827     0.00000     0.00000     0.00000
  in kB      34.11725    34.11725    34.11725     0.00000     0.00000     0.00000

 VOLUME and BASIS-vectors are now :
  energy-cutoff  :      245.44
  volume of cell :       39.37
      direct lattice vectors                 reciprocal lattice vectors
     0.000000000  2.700000000  2.700000000    -0.185185185  0.185185185  0.185185185
     2.700000000  0.000000000  2.700000000     0.185185185 -0.185185185  0.185185185
     2.700000000  2.700000000  0.000000000     0.185185185  0.185185185 -0.185185185

[...]

 FORCES acting on ions
    electron-ion (+dipol)            ewald-force                    non-local-force                 convergence-correction
   -.155E-05 -.155E-05 -.155E-05   -.230E-14 -.397E-14 -.417E-14   0.104E-16 0.139E-16 0.149E-16   0.245E-06 0.245E-06 0.245E-06
   0.155E-05 0.155E-05 0.155E-05   0.259E-14 0.417E-14 0.456E-14   -.139E-16 -.139E-16 -.572E-17   -.245E-06 -.245E-06 -.245E-06
   0.222E-15 -.232E-14 0.140E-13   0.293E-15 0.199E-15 0.386E-15   -.347E-17 0.000E+00 0.920E-17   -.415E-14 -.369E-15 -.477E-15

 POSITION                                       TOTAL-FORCE (eV/Angst)
      0.00000      0.00000      0.00000        -0.000000     -0.000000     -0.000000
      1.35000      1.35000      1.35000         0.000000      0.000000      0.000000
    total drift:                               -0.000000     -0.000000      0.000000

  FREE ENERGIE OF THE ION-ELECTRON SYSTEM (eV)
  free  energy   TOTEN  =       -10.82190801 eV

  energy  without entropy=      -10.82229877  energy(sigma->0) =      -10.82203826

[...]

 d Force = 0.0000000E+00[ 0.000E+00, 0.000E+00]  d Energy = 0.7747413E-02-0.775E-02
 d Force = 0.0000000E+00[ 0.000E+00, 0.000E+00]  d Ewald  =-0.4555174E+01 0.456E+01

 Steepest descent step on ions:
 trial-energy change:   -0.007747  1 .order   -0.008868   -0.050850    0.033113
  (g-gl).g = 0.509E-01      g.g   = 0.509E-01  gl.gl    = 0.000E+00
 g(Force)  = 0.775E-45   g(Stress)= 0.509E-01 ortho     = 0.000E+00
 gamma     =   0.00000
 trial     =   1.00000
 opt step  =   0.58619  (harmonic =   0.60562) maximal distance =0.00000000
 next E    =   -10.836586   (d E  =  -0.01468)

[...]

 eigenvalue-minimisations  : 42720
 total energy-change (2. order) :-0.1437696E-05  (-0.4210041E-07)
 number of electron       7.9999996 magnetization
 augmentation part       -0.4636264 magnetization

 Broyden mixing:
  rms(total) = 0.70979E-04    rms(broyden)= 0.70869E-04
  rms(prec ) = 0.16728E-03
  weight for this iteration     100.00

 eigenvalues of (default mixing * dielectric matrix)
  average eigenvalue GAMMA=   2.0168
  1.0109  2.6495  2.0892  2.3174

[...]

--------------------------------------- Iteration      3(   6)  ---------------------------------------

 eigenvalue-minimisations  : 24840
 total energy-change (2. order) : 0.4627321E-06  (-0.2457182E-08)
 number of electron       7.9999996 magnetization
 augmentation part       -0.4636264 magnetization

 Free energy of the ion-electron system (eV)
  alpha Z        PSCENC =         3.18281465
  Ewald energy   TEWEN  =      -227.14104049
  -Hartree energ DENC   =       -15.21926945
  -exchange      EXHF   =         0.00000000
  -V(xc)+E(xc)   XCENC  =       -18.52612504
  PAW double counting   =        74.96504717      -39.61870785
  entropy T*S    EENTRO =         0.00040485
  eigenvalues    EBANDS =         4.91649000
  atomic energy  EATOM  =       206.60389906
  Solvation  Ediel_sol  =         0.00000000
  free energy    TOTEN  =       -10.83648710 eV

  energy without entropy =      -10.83689195  energy(sigma->0) =      -10.83662205

 average (electrostatic) potential at core
  the test charge radii are     0.9892
  (the norm of the test charge is              1.0000)
       1 -83.7055       2 -83.7055

 E-fermi :   5.6612     XC(G=0):  -9.3631     alpha+bet :-11.7766

[...]

 k-point  2480 :      -0.4833    0.4833    0.4833
  band No.  band energies     occupation
      1      -3.9118      2.00000
      2      -1.2481      2.00000
      3       4.3164      2.00000
      4       4.4196      2.00000
      5       7.2134     -0.00000
      6       8.9868     -0.00000
      7       9.0501     -0.00000
      8      13.3839      0.00000

 soft charge-density along one line, spin component           1
         0         1         2         3         4         5         6         7         8         9
 total charge-density along one line

------------------------ aborting loop because EDIFF is reached ----------------------------------------

  FORCE on cell =-STRESS in cart. coord.  units (eV):
  Direction    XX          YY          ZZ          XY          YZ          ZX
  Alpha Z     3.18281     3.18281     3.18281
  Ewald     -75.71371   -75.71371   -75.71371     0.00000    -0.00000     0.00000
  Hartree     5.07306     5.07306     5.07306    -0.00000    -0.00000    -0.00000
  E(xc)     -25.38879   -25.38879   -25.38879     0.00001     0.00001     0.00001
  Local     -29.92962   -29.92962   -29.92962     0.00005     0.00005     0.00005
  n-local    78.32763    80.70286    75.51934     1.02367    -1.02576     0.00206
  augment   -11.79369   -11.79369   -11.79369    -0.00005    -0.00005    -0.00005
  Kinetic    58.06784    55.85093    55.24147     0.90941    -0.91136     0.00177
  Fock        0.00000     0.00000     0.00000     0.00000     0.00000     0.00000
  Total       0.00009     0.00009     0.00009    -0.00000     0.00000    -0.00000
  in kB       0.00354     0.00354     0.00354    -0.00000     0.00000    -0.00000

 VOLUME and BASIS-vectors are now :
  energy-cutoff  :      245.44
  volume of cell :       40.78
      direct lattice vectors                 reciprocal lattice vectors
    -0.000000000  2.732002851  2.732002851    -0.183015914  0.183015914  0.183015914
     2.732002851  0.000000000  2.732002851     0.183015914 -0.183015914  0.183015914
     2.732002851  2.732002851  0.000000000     0.183015914  0.183015914 -0.183015914

  length of vectors
     3.863635484  3.863635484  3.863635484     0.316992862  0.316992862  0.316992862

 FORCES acting on ions
    electron-ion (+dipol)            ewald-force                    non-local-force                 convergence-correction
   0.426E-06 0.426E-06 0.426E-06   -.136E-14 0.126E-14 0.805E-15   0.694E-17 0.139E-16 0.123E-16   -.126E-07 -.126E-07 -.126E-07
   -.426E-06 -.426E-06 -.426E-06   0.145E-14 -.199E-14 -.391E-15   -.104E-16 -.139E-16 -.152E-16   0.126E-07 0.126E-07 0.126E-07
   0.167E-14 -.224E-14 0.644E-14   0.849E-16 -.735E-15 0.414E-15   -.347E-17 0.000E+00 -.290E-17   -.170E-15 0.128E-15 0.132E-15

 POSITION                                       TOTAL-FORCE (eV/Angst)
     -0.00000     -0.00000     -0.00000        -0.000000     -0.000000     -0.000000
      1.36600      1.36600      1.36600         0.000000      0.000000      0.000000
    total drift:                                0.000000     -0.000000      0.000000

  FREE ENERGIE OF THE ION-ELECTRON SYSTEM (eV)
  free  energy   TOTEN  =       -10.83648710 eV

  energy  without entropy=      -10.83689195  energy(sigma->0) =      -10.83662205

 d Force = 0.0000000E+00[ 0.000E+00, 0.000E+00]  d Energy = 0.6831675E-02-0.683E-02
 d Force = 0.0000000E+00[ 0.000E+00, 0.000E+00]  d Ewald  = 0.1862893E+01-0.186E+01

 reached required accuracy - stopping structural energy minimisation

volume of typ            1:    46.4 %

total charge

# of ion       s       p       d       tot
    1        1.035   1.498   0.126   2.659
    2        1.035   1.498   0.126   2.659
tot           2.07    3.00    0.25    5.32

orbital moment (x)

[...]

orbital moment (y)

[...]

orbital moment (z)

# of ion     s             p             d             tot
    1     0.000000E+00  0.963398E-02  0.610851E-02  0.157425E-01
    2     0.000000E+00 -0.963398E-02 -0.610851E-02 -0.157425E-01
tot        0.000000E+00 -0.201433E-10  0.174950E-11 -0.183938E-10