 vasp.5.4.4.18Apr17-6-g9f103f2a35 (build May 20 2018 16:52:39) complex

 executed on             LinuxIFC date 2022.10.30  22:53:20

 INCAR:
 POTCAR:    PAW Na
 POTCAR:    PAW Na
   VRHFIN =Na: s1p0

   TITEL  = PAW Na
   POMASS =   22.990; ZVAL   =    1.000    mass and valenz
   ENMAX  =  101.956; ENMIN  =   76.467 eV
   QCUT   =   -2.737; QGAM   =    5.475    optimization parameters

   Description
     l     E      TYP  RCUT    TYP  RCUT
     0   .000     23  2.200
     0  2.000     23  2.200
     1   .000     23  2.200
     2   .000     23  2.200

  PAW Na                                :

 POSCAR: Na
  positions in direct lattice
 exchange correlation table for  LEXCH =        2
   RHO(1)=    0.500       N(1)  =     2000
   RHO(2)=  100.500       N(2)  =     4000

 ion  position               nearest neighbor table
   1  0.000  0.000  0.000-

  LATTYP: Found a body centered cubic cell.
 ALAT       =     4.1500000000

  Lattice vectors:

 A1 = (  -2.0750000000,   2.0750000000,   2.0750000000)
 A2 = (   2.0750000000,  -2.0750000000,   2.0750000000)
 A3 = (   2.0750000000,   2.0750000000,  -2.0750000000)

Analysis of symmetry for initial positions (statically):
 Subroutine PRICEL returns:
 Original cell was already a primitive cell.

 Routine SETGRP: Setting up the symmetry group for a
 body centered cubic supercell.

 Subroutine GETGRP returns: Found 48 space group operations
 (whereof 48 operations were pure point group operations)
 out of a pool of 48 trial point group operations.

The static configuration has the point symmetry O_h .

Analysis of symmetry for dynamics (positions and initial velocities):
 Subroutine PRICEL returns:
 Original cell was already a primitive cell.

 Routine SETGRP: Setting up the symmetry group for a
 body centered cubic supercell.

 Subroutine GETGRP returns: Found 48 space group operations
 (whereof 48 operations were pure point group operations)
 out of a pool of 48 trial point group operations.

The dynamic configuration has the point symmetry O_h .

 Subroutine INISYM returns: Found 48 space group operations
 (whereof 48 operations are pure point group operations),
 and found     1 'primitive' translations

 KPOINTS: 20x20x20

Automatic generation of k-mesh.
Space group operators:
 irot       det(A)        alpha          n_x          n_y          n_z        tau_x        tau_y        tau_z
    1     1.000000     0.000000     1.000000     0.000000     0.000000     0.000000     0.000000     0.000000
    2    -1.000000     0.000000     1.000000     0.000000     0.000000     0.000000     0.000000     0.000000
    3     1.000000   120.000000    -0.577350    -0.577350    -0.577350     0.000000     0.000000     0.000000
    4    -1.000000   120.000000    -0.577350    -0.577350    -0.577350     0.000000     0.000000     0.000000
    5     1.000000   120.000000     0.577350     0.577350     0.577350     0.000000     0.000000     0.000000
    6    -1.000000   120.000000     0.577350     0.577350     0.577350     0.000000     0.000000     0.000000
    7     1.000000    90.000000     0.000000     0.000000    -1.000000     0.000000     0.000000     0.000000
    8    -1.000000    90.000000     0.000000     0.000000    -1.000000     0.000000     0.000000     0.000000
    9     1.000000   180.000000     0.000000     0.707107     0.707107     0.000000     0.000000     0.000000
   10    -1.000000   180.000000     0.000000     0.707107     0.707107     0.000000     0.000000     0.000000
   11     1.000000    90.000000     0.000000     1.000000     0.000000     0.000000     0.000000     0.000000
   12    -1.000000    90.000000     0.000000     1.000000     0.000000     0.000000     0.000000     0.000000
   13     1.000000   180.000000     0.000000     0.000000     1.000000     0.000000     0.000000     0.000000
   14    -1.000000   180.000000     0.000000     0.000000     1.000000     0.000000     0.000000     0.000000
   15     1.000000   120.000000    -0.577350     0.577350     0.577350     0.000000     0.000000     0.000000
   16    -1.000000   120.000000    -0.577350     0.577350     0.577350     0.000000     0.000000     0.000000
   17     1.000000   120.000000    -0.577350     0.577350    -0.577350     0.000000     0.000000     0.000000
   18    -1.000000   120.000000    -0.577350     0.577350    -0.577350     0.000000     0.000000     0.000000
   19     1.000000    90.000000     0.000000     0.000000     1.000000     0.000000     0.000000     0.000000
   20    -1.000000    90.000000     0.000000     0.000000     1.000000     0.000000     0.000000     0.000000
   21     1.000000    90.000000    -1.000000     0.000000     0.000000     0.000000     0.000000     0.000000
   22    -1.000000    90.000000    -1.000000     0.000000     0.000000     0.000000     0.000000     0.000000
   23     1.000000   180.000000     0.707107     0.000000     0.707107     0.000000     0.000000     0.000000
   24    -1.000000   180.000000     0.707107     0.000000     0.707107     0.000000     0.000000     0.000000
   25     1.000000   120.000000     0.577350    -0.577350     0.577350     0.000000     0.000000     0.000000
   26    -1.000000   120.000000     0.577350    -0.577350     0.577350     0.000000     0.000000     0.000000
   27     1.000000   120.000000    -0.577350    -0.577350     0.577350     0.000000     0.000000     0.000000
   28    -1.000000   120.000000    -0.577350    -0.577350     0.577350     0.000000     0.000000     0.000000
   29     1.000000   180.000000     1.000000     0.000000     0.000000     0.000000     0.000000     0.000000
   30    -1.000000   180.000000     1.000000     0.000000     0.000000     0.000000     0.000000     0.000000
   31     1.000000    90.000000     0.000000    -1.000000     0.000000     0.000000     0.000000     0.000000
   32    -1.000000    90.000000     0.000000    -1.000000     0.000000     0.000000     0.000000     0.000000
   33     1.000000   180.000000     0.707107     0.707107     0.000000     0.000000     0.000000     0.000000
   34    -1.000000   180.000000     0.707107     0.707107     0.000000     0.000000     0.000000     0.000000
   35     1.000000    90.000000     1.000000     0.000000     0.000000     0.000000     0.000000     0.000000
   36    -1.000000    90.000000     1.000000     0.000000     0.000000     0.000000     0.000000     0.000000
   37     1.000000   120.000000     0.577350    -0.577350    -0.577350     0.000000     0.000000     0.000000
   38    -1.000000   120.000000     0.577350    -0.577350    -0.577350     0.000000     0.000000     0.000000
   39     1.000000   180.000000     0.000000     1.000000     0.000000     0.000000     0.000000     0.000000
   40    -1.000000   180.000000     0.000000     1.000000     0.000000     0.000000     0.000000     0.000000
   41     1.000000   120.000000     0.577350     0.577350    -0.577350     0.000000     0.000000     0.000000
   42    -1.000000   120.000000     0.577350     0.577350    -0.577350     0.000000     0.000000     0.000000
   43     1.000000   180.000000     0.000000    -0.707107     0.707107     0.000000     0.000000     0.000000
   44    -1.000000   180.000000     0.000000    -0.707107     0.707107     0.000000     0.000000     0.000000
   45     1.000000   180.000000     0.707107    -0.707107     0.000000     0.000000     0.000000     0.000000
   46    -1.000000   180.000000     0.707107    -0.707107     0.000000     0.000000     0.000000     0.000000
   47     1.000000   180.000000     0.707107     0.000000    -0.707107     0.000000     0.000000     0.000000
   48    -1.000000   180.000000     0.707107     0.000000    -0.707107     0.000000     0.000000     0.000000

 Subroutine IBZKPT returns following result:

 Found    250 irreducible k-points:

 Following reciprocal coordinates:
            Coordinates               Weight
  0.025000  0.025000  0.025000      8.000000
  0.075000  0.025000  0.025000     24.000000
  0.125000  0.025000  0.025000     24.000000
  0.175000  0.025000  0.025000     24.000000
  0.225000  0.025000  0.025000     24.000000
  0.275000  0.025000  0.025000     24.000000
  0.325000  0.025000  0.025000     24.000000
  0.375000  0.025000  0.025000     24.000000
  0.425000  0.025000  0.025000     24.000000
  0.475000  0.025000  0.025000     12.000000
 -0.025000  0.025000  0.025000      6.000000
  0.075000  0.075000  0.025000     24.000000
  0.125000  0.075000  0.025000     48.000000
  0.175000  0.075000  0.025000     48.000000
  0.225000  0.075000  0.025000     48.000000
  0.275000  0.075000  0.025000     48.000000
  0.325000  0.075000  0.025000     48.000000
  0.375000  0.075000  0.025000     48.000000
  0.425000  0.075000  0.025000     48.000000
 -0.075000  0.075000  0.025000     24.000000
  0.125000  0.125000  0.025000     24.000000
  0.175000  0.125000  0.025000     48.000000
  0.225000  0.125000  0.025000     48.000000
  0.275000  0.125000  0.025000     48.000000
  0.325000  0.125000  0.025000     48.000000
  0.375000  0.125000  0.025000     48.000000
  0.425000  0.125000  0.025000     24.000000
 -0.125000  0.125000  0.025000     24.000000
 -0.075000  0.125000  0.025000     24.000000
  0.175000  0.175000  0.025000     24.000000
  0.225000  0.175000  0.025000     48.000000
  0.275000  0.175000  0.025000     48.000000
  0.325000  0.175000  0.025000     48.000000
  0.375000  0.175000  0.025000     48.000000
 -0.175000  0.175000  0.025000     24.000000
 -0.125000  0.175000  0.025000     48.000000
  0.225000  0.225000  0.025000     24.000000
  0.275000  0.225000  0.025000     48.000000
  0.325000  0.225000  0.025000     48.000000
  0.375000  0.225000  0.025000     24.000000
 -0.225000  0.225000  0.025000     24.000000
 -0.175000  0.225000  0.025000     48.000000
 -0.125000  0.225000  0.025000     24.000000
  0.275000  0.275000  0.025000     24.000000
  0.325000  0.275000  0.025000     48.000000
 -0.275000  0.275000  0.025000     24.000000
 -0.225000  0.275000  0.025000     48.000000
 -0.175000  0.275000  0.025000     48.000000
  0.325000  0.325000  0.025000      8.000000
 -0.325000  0.325000  0.025000     24.000000
 -0.275000  0.325000  0.025000     48.000000
 -0.225000  0.325000  0.025000     48.000000
 -0.175000  0.325000  0.025000     24.000000
 -0.375000  0.375000  0.025000     24.000000
 -0.325000  0.375000  0.025000     48.000000
 -0.275000  0.375000  0.025000     48.000000
 -0.225000  0.375000  0.025000     48.000000
 -0.425000  0.425000  0.025000     24.000000
 -0.375000  0.425000  0.025000     48.000000
 -0.325000  0.425000  0.025000     48.000000
[...]
 -0.425000  0.425000  0.325000     24.000000
 -0.375000  0.425000  0.325000     24.000000
 -0.475000  0.475000  0.325000     24.000000
 -0.425000  0.475000  0.325000     48.000000
 -0.475000 -0.475000  0.325000     24.000000
 -0.425000 -0.475000  0.325000     24.000000
 -0.375000  0.375000  0.375000      6.000000
 -0.425000  0.425000  0.375000     24.000000
 -0.475000  0.475000  0.375000     24.000000
 -0.425000  0.475000  0.375000     24.000000
 -0.475000 -0.475000  0.375000     24.000000
 -0.425000  0.425000  0.425000      6.000000
 -0.475000  0.475000  0.425000     24.000000
 -0.475000 -0.475000  0.425000      8.000000
 -0.475000  0.475000  0.475000      6.000000

[...]
  -0.42500000  0.47500000  0.37500000       0.003
  -0.47500000 -0.47500000  0.37500000       0.003
  -0.42500000  0.42500000  0.42500000       0.001
  -0.47500000  0.47500000  0.42500000       0.003
  -0.47500000 -0.47500000  0.42500000       0.001
  -0.47500000  0.47500000  0.47500000       0.001

 position of ions in fractional coordinates (direct lattice)
   0.00000000  0.00000000  0.00000000

 position of ions in cartesian coordinates  (Angst):
   0.00000000  0.00000000  0.00000000

 k-point  1 :   0.0250 0.0250 0.0250  plane waves:      80
 k-point  2 :   0.0750 0.0250 0.0250  plane waves:      81
 k-point  3 :   0.1250 0.0250 0.0250  plane waves:      81
 k-point  4 :   0.1750 0.0250 0.0250  plane waves:      79
 k-point  5 :   0.2250 0.0250 0.0250  plane waves:      79
 k-point  6 :   0.2750 0.0250 0.0250  plane waves:      81
 k-point  7 :   0.3250 0.0250 0.0250  plane waves:      83
 k-point  8 :   0.3750 0.0250 0.0250  plane waves:      83
 k-point  9 :   0.4250 0.0250 0.0250  plane waves:      82
 k-point 10 :   0.4750 0.0250 0.0250  plane waves:      80
 k-point 11 :  -0.0250 0.0250 0.0250  plane waves:      79
 k-point 12 :   0.0750 0.0750 0.0250  plane waves:      82
 k-point 13 :   0.1250 0.0750 0.0250  plane waves:      82
 k-point 14 :   0.1750 0.0750 0.0250  plane waves:      80
 k-point 15 :   0.2250 0.0750 0.0250  plane waves:      83
 k-point 16 :   0.2750 0.0750 0.0250  plane waves:      82
 k-point 17 :   0.3250 0.0750 0.0250  plane waves:      82
 k-point 18 :   0.3750 0.0750 0.0250  plane waves:      80
 k-point 19 :   0.4250 0.0750 0.0250  plane waves:      80
 k-point 20 :  -0.0750 0.0750 0.0250  plane waves:      81
 k-point 21 :   0.1250 0.1250 0.0250  plane waves:      80
 k-point 22 :   0.1750 0.1250 0.0250  plane waves:      83
 k-point 23 :   0.2250 0.1250 0.0250  plane waves:      83
 k-point 24 :   0.2750 0.1250 0.0250  plane waves:      81
 k-point 25 :   0.3250 0.1250 0.0250  plane waves:      82
 k-point 26 :   0.3750 0.1250 0.0250  plane waves:      82
 k-point 27 :   0.4250 0.1250 0.0250  plane waves:      82
 k-point 28 :  -0.1250 0.1250 0.0250  plane waves:      81
 k-point 29 :  -0.0750 0.1250 0.0250  plane waves:      82
 k-point 30 :   0.1750 0.1750 0.0250  plane waves:      80
 k-point 31 :   0.2250 0.1750 0.0250  plane waves:      83
 k-point 32 :   0.2750 0.1750 0.0250  plane waves:      82
 k-point 33 :   0.3250 0.1750 0.0250  plane waves:      82
 k-point 34 :   0.3750 0.1750 0.0250  plane waves:      81
 k-point 35 :  -0.1750 0.1750 0.0250  plane waves:      81
 k-point 36 :  -0.1250 0.1750 0.0250  plane waves:      82
 k-point 37 :   0.2250 0.2250 0.0250  plane waves:      84
 k-point 38 :   0.2750 0.2250 0.0250  plane waves:      83
 k-point 39 :   0.3250 0.2250 0.0250  plane waves:      82
 k-point 40 :   0.3750 0.2250 0.0250  plane waves:      81
 k-point 41 :  -0.2250 0.2250 0.0250  plane waves:      79
 k-point 42 :  -0.1750 0.2250 0.0250  plane waves:      80
 k-point 43 :  -0.1250 0.2250 0.0250  plane waves:      80
 k-point 44 :   0.2750 0.2750 0.0250  plane waves:      80
 k-point 45 :   0.3250 0.2750 0.0250  plane waves:      82
 k-point 46 :  -0.2750 0.2750 0.0250  plane waves:      81
 k-point 47 :  -0.2250 0.2750 0.0250  plane waves:      81
 k-point 48 :  -0.1750 0.2750 0.0250  plane waves:      81
 k-point 49 :   0.3250 0.3250 0.0250  plane waves:      83
 k-point 50 :  -0.3250 0.3250 0.0250  plane waves:      80
 k-point 51 :  -0.2750 0.3250 0.0250  plane waves:      81
 k-point 52 :  -0.2250 0.3250 0.0250  plane waves:      81
 k-point 53 :  -0.1750 0.3250 0.0250  plane waves:      80
 k-point 54 :  -0.3750 0.3750 0.0250  plane waves:      82
 k-point 55 :  -0.3250 0.3750 0.0250  plane waves:      82
 k-point 56 :  -0.2750 0.3750 0.0250  plane waves:      83
 k-point 57 :  -0.2250 0.3750 0.0250  plane waves:      82
 k-point 58 :  -0.4250 0.4250 0.0250  plane waves:      80
 k-point 59 :  -0.3750 0.4250 0.0250  plane waves:      83
 k-point 60 :  -0.3250 0.4250 0.0250  plane waves:      83
[...]
 k-point 85 :   0.4250 0.0750 0.0750  plane waves:      80
 k-point 86 :  -0.0750 0.0750 0.0750  plane waves:      83
 k-point 87 :   0.1250 0.1250 0.0750  plane waves:      83
 k-point 88 :   0.1750 0.1250 0.0750  plane waves:      83
 k-point 89 :   0.2250 0.1250 0.0750  plane waves:      83
 k-point 90 :   0.2750 0.1250 0.0750  plane waves:      81
 k-point 91 :   0.3250 0.1250 0.0750  plane waves:      79
 k-point 92 :   0.3750 0.1250 0.0750  plane waves:      82
 k-point 93 :  -0.1250 0.1250 0.0750  plane waves:      83
 k-point 94 :   0.1750 0.1750 0.0750  plane waves:      83
 k-point 95 :   0.2250 0.1750 0.0750  plane waves:      83
 k-point 96 :   0.2750 0.1750 0.0750  plane waves:      82
 k-point 97 :   0.3250 0.1750 0.0750  plane waves:      81
 k-point 98 :   0.3750 0.1750 0.0750  plane waves:      80
 k-point 99 :  -0.1750 0.1750 0.0750  plane waves:      82
 k-point ** :  -0.1250 0.1750 0.0750  plane waves:      83
 k-point ** :   0.2250 0.2250 0.0750  plane waves:      84
 k-point ** :   0.2750 0.2250 0.0750  plane waves:      82
 k-point ** :   0.3250 0.2250 0.0750  plane waves:      81
 k-point ** :  -0.2250 0.2250 0.0750  plane waves:      80
 k-point ** :  -0.1750 0.2250 0.0750  plane waves:      79
 k-point ** :   0.2750 0.2750 0.0750  plane waves:      80
 k-point ** :   0.3250 0.2750 0.0750  plane waves:      80
 k-point ** :  -0.2750 0.2750 0.0750  plane waves:      84
 k-point ** :  -0.2250 0.2750 0.0750  plane waves:      81
 k-point ** :  -0.1750 0.2750 0.0750  plane waves:      81
 k-point ** :  -0.3250 0.3250 0.0750  plane waves:      82
 k-point ** :  -0.2750 0.3250 0.0750  plane waves:      84
 k-point ** :  -0.2250 0.3250 0.0750  plane waves:      82
 k-point ** :  -0.3750 0.3750 0.0750  plane waves:      82
 k-point ** :  -0.3250 0.3750 0.0750  plane waves:      85
 k-point ** :  -0.2750 0.3750 0.0750  plane waves:      85
 k-point ** :  -0.2250 0.3750 0.0750  plane waves:      83
 k-point ** :  -0.4250 0.4250 0.0750  plane waves:      83
 k-point ** :  -0.3750 0.4250 0.0750  plane waves:      83
 k-point ** :  -0.3250 0.4250 0.0750  plane waves:      84
 k-point ** :  -0.2750 0.4250 0.0750  plane waves:      85
 k-point ** :  -0.4750 0.4750 0.0750  plane waves:      82
 k-point ** :  -0.4250 0.4750 0.0750  plane waves:      84
 k-point ** :  -0.3750 0.4750 0.0750  plane waves:      83
 k-point ** :  -0.3250 0.4750 0.0750  plane waves:      84
 k-point ** :  -0.2750 0.4750 0.0750  plane waves:      86
 k-point ** :  -0.4750-0.4750 0.0750  plane waves:      84
 k-point ** :  -0.4250-0.4750 0.0750  plane waves:      83
 k-point ** :  -0.3750-0.4750 0.0750  plane waves:      83
 k-point ** :  -0.3250-0.4750 0.0750  plane waves:      86
 k-point ** :  -0.4250-0.4250 0.0750  plane waves:      82
 k-point ** :  -0.3750-0.4250 0.0750  plane waves:      84
 k-point ** :  -0.3250-0.4250 0.0750  plane waves:      85
 k-point ** :  -0.3750-0.3750 0.0750  plane waves:      84
 k-point ** :   0.1250 0.1250 0.1250  plane waves:      83
 k-point ** :   0.1750 0.1250 0.1250  plane waves:      83
 k-point ** :   0.2250 0.1250 0.1250  plane waves:      81
 k-point ** :   0.2750 0.1250 0.1250  plane waves:      81
 k-point ** :   0.3250 0.1250 0.1250  plane waves:      82
 k-point ** :   0.3750 0.1250 0.1250  plane waves:      84
 k-point ** :  -0.1250 0.1250 0.1250  plane waves:      83
 k-point ** :   0.1750 0.1750 0.1250  plane waves:      83
 k-point ** :   0.2250 0.1750 0.1250  plane waves:      84
 k-point ** :   0.2750 0.1750 0.1250  plane waves:      82
 k-point ** :   0.3250 0.1750 0.1250  plane waves:      82
 k-point ** :  -0.1750 0.1750 0.1250  plane waves:      79
 k-point ** :   0.2250 0.2250 0.1250  plane waves:      83
 k-point ** :   0.2750 0.2250 0.1250  plane waves:      80
 k-point ** :   0.3250 0.2250 0.1250  plane waves:      80
 k-point ** :  -0.2250 0.2250 0.1250  plane waves:      81
 k-point ** :  -0.1750 0.2250 0.1250  plane waves:      79
 k-point ** :   0.2750 0.2750 0.1250  plane waves:      78
 k-point ** :  -0.2750 0.2750 0.1250  plane waves:      82
 k-point ** :  -0.2250 0.2750 0.1250  plane waves:      82
 k-point ** :  -0.3250 0.3250 0.1250  plane waves:      84
 k-point ** :  -0.2750 0.3250 0.1250  plane waves:      85
 k-point ** :  -0.2250 0.3250 0.1250  plane waves:      83
 k-point ** :  -0.3750 0.3750 0.1250  plane waves:      82
 k-point ** :  -0.3250 0.3750 0.1250  plane waves:      86
[...]
 k-point ** :  -0.4250 0.4250 0.3250  plane waves:      88
 k-point ** :  -0.3750 0.4250 0.3250  plane waves:      86
 k-point ** :  -0.4750 0.4750 0.3250  plane waves:      86
 k-point ** :  -0.4250 0.4750 0.3250  plane waves:      88
 k-point ** :  -0.4750-0.4750 0.3250  plane waves:      87
 k-point ** :  -0.4250-0.4750 0.3250  plane waves:      85
 k-point ** :  -0.3750 0.3750 0.3750  plane waves:      92
 k-point ** :  -0.4250 0.4250 0.3750  plane waves:      87
 k-point ** :  -0.4750 0.4750 0.3750  plane waves:      86
 k-point ** :  -0.4250 0.4750 0.3750  plane waves:      86
 k-point ** :  -0.4750-0.4750 0.3750  plane waves:      87
 k-point ** :  -0.4250 0.4250 0.4250  plane waves:      88
 k-point ** :  -0.4750 0.4750 0.4250  plane waves:      90
 k-point ** :  -0.4750-0.4750 0.4250  plane waves:      92
 k-point ** :  -0.4750 0.4750 0.4750  plane waves:      92

 maximum and minimum number of plane-waves per node :        92       78

 maximum number of plane-waves:        92
 maximum index in each direction:
   IXMAX=    3   IYMAX=    3   IZMAX=    2
   IXMIN=   -3   IYMIN=   -3   IZMIN=   -3

 serial   3D FFT for wavefunctions
 parallel 3D FFT for charge:
    minimum data exchange during FFTs selected (reduces bandwidth)

 Broyden mixing: mesh for mixing (old mesh)
   NGX =  5   NGY =  5   NGZ =  5
  (NGX  = 20   NGY  = 20   NGZ  = 20)
  gives a total of    125 points

 initial charge density was supplied:
 charge density of overlapping atoms calculated
 number of electron       1.0000000 magnetization
 keeping initial charge density in first step

 Maximum index for augmentation-charges         1363 (set IRDMAX)

 First call to EWALD:  gamma=   0.538
 Maximum number of real-space cells 3x 3x 3
 Maximum number of reciprocal cells 3x 3x 3

--------------------------------------- Iteration      1(   1)  ---------------------------------------

 eigenvalue-minimisations  :  2280
 total energy-change (2. order) :-0.1365865E+01  (-0.6725500E+01)
 number of electron       1.0000000 magnetization
 augmentation part        1.0000000 magnetization

 Free energy of the ion-electron system (eV)
  alpha Z        PSCENC =        -0.57328679
  Ewald energy   TEWEN  =        -6.31375748
  -Hartree energ DENC   =        -0.00325739
  -exchange      EXHF   =         0.00000000
  -V(xc)+E(xc)   XCENC  =       -35.75513363
  PAW double counting   =        36.61933760        0.11055659
  entropy T*S    EENTRO =         0.00118338
  eigenvalues    EBANDS =        -0.63945777
  atomic energy  EATOM  =         5.18795064
  Solvation  Ediel_sol  =         0.00000000
  free energy    TOTEN  =        -1.36586486 eV

  energy without entropy =       -1.36704823  energy(sigma->0) =       -1.36625932

[...]

 eigenvalue-minimisations  :  2260
 total energy-change (2. order) :-0.2541903E-08  (-0.2559961E-08)
 number of electron       0.9999999 magnetization
 augmentation part        0.0096910 magnetization

 Broyden mixing:
  rms(total) = 0.19903E-01    rms(broyden)= 0.19661E-01
  rms(prec ) = 0.82026E-01
  weight for this iteration     100.00

[...]

 eigenvalue-minimisations  :  2256
 total energy-change (2. order) : 0.5474491E-03  (-0.1788054E-05)
 number of electron       0.9999999 magnetization
 augmentation part        0.0096749 magnetization

[...]

 eigenvalues of (default mixing * dielectric matrix)
  average eigenvalue GAMMA=   2.9665
  2.9665

[...]

 Broyden mixing:
  rms(total) = 0.18679E-03    rms(broyden)= 0.18568E-03
  rms(prec ) = 0.43231E-03
  weight for this iteration     100.00

 eigenvalues of (default mixing * dielectric matrix)
  average eigenvalue GAMMA=   2.1725
  3.0460  2.6163  0.8552

[...]

--------------------------------------- Iteration      1(   9)  ---------------------------------------

 eigenvalue-minimisations  :  2340
 total energy-change (2. order) : 0.1420074E-07  (-0.2700603E-07)
 number of electron       0.9999999 magnetization
 augmentation part        0.0096395 magnetization

 Free energy of the ion-electron system (eV)
  alpha Z        PSCENC =        -0.57328679
  Ewald energy   TEWEN  =        -6.31375748
  -Hartree energ DENC   =        -0.01356705
  -exchange      EXHF   =         0.00000000
  -V(xc)+E(xc)   XCENC  =       -35.70811289
  PAW double counting   =        36.64253983        0.08357091
  entropy T*S    EENTRO =        -0.00055002
  eigenvalues    EBANDS =        -0.74866988
  atomic energy  EATOM  =         5.18795064
  Solvation  Ediel_sol  =         0.00000000
  free energy    TOTEN  =        -1.44388275 eV

  energy without entropy =       -1.44333273  energy(sigma->0) =       -1.44369941

 average (electrostatic) potential at core
  the test charge radii are     1.1212
  (the norm of the test charge is              1.0000)
       1 -44.3095

 E-fermi :   0.5783     XC(G=0):  -6.5309     alpha+bet : -5.1036

 k-point     1 :       0.0250    0.0250    0.0250
  band No.  band energies     occupation
      1      -2.7251      2.00000
      2      11.7432      0.00000
      3      11.7432      0.00000
      4      11.8763      0.00000

[...]

 k-point   250 :      -0.4750    0.4750    0.4750
  band No.  band energies     occupation
      1       4.6868     -0.00000
      2       5.2428     -0.00000
      3       5.5337     -0.00000
      4       5.5337     -0.00000

 soft charge-density along one line, spin component           1
         0         1         2         3         4         5         6         7         8         9
 total charge-density along one line

------------------------ aborting loop because EDIFF is reached ----------------------------------------

  FORCE on cell =-STRESS in cart. coord.  units (eV):
  Direction    XX          YY          ZZ          XY          YZ          ZX
  Alpha Z    -0.57329    -0.57329    -0.57329
  Ewald      -2.10459    -2.10459    -2.10459    -0.00000    -0.00000    -0.00000
  Hartree     0.00452     0.00452     0.00452    -0.00000    -0.00000    -0.00000
  E(xc)      -2.16763    -2.16763    -2.16763    -0.00000    -0.00000    -0.00000
  Local       0.43655     0.43655     0.43655     0.00001     0.00001     0.00001
  n-local     2.56534     2.56131     2.56054    -0.01343     0.00858     0.00947
  augment     0.11897     0.11897     0.11897    -0.00000    -0.00000    -0.00000
  Kinetic     2.48511     1.20288     1.05893    -0.59557     0.42956     0.63302
  Fock        0.00000     0.00000     0.00000     0.00000     0.00000     0.00000
  Total      -0.14076    -0.14076    -0.14076    -0.00000    -0.00000     0.00000
  in kB      -6.31083    -6.31083    -6.31083    -0.00000    -0.00000     0.00000

 VOLUME and BASIS-vectors are now :
  energy-cutoff  :      101.96
  volume of cell :       35.74
      direct lattice vectors                 reciprocal lattice vectors
    -2.075000000  2.075000000  2.075000000     0.000000000  0.240963855  0.240963855
     2.075000000 -2.075000000  2.075000000     0.240963855  0.000000000  0.240963855
     2.075000000  2.075000000 -2.075000000     0.240963855  0.240963855  0.000000000

  length of vectors
     3.594005426  3.594005426  3.594005426     0.340774352  0.340774352  0.340774352

 FORCES acting on ions
    electron-ion (+dipol)            ewald-force                    non-local-force                 convergence-correction
   0.434E-14 0.676E-14 0.627E-14   0.309E-17 0.153E-16 0.164E-16   -.569E-24 0.465E-24 0.155E-24   -.541E-17 -.565E-17 -.547E-17
   0.434E-14 0.676E-14 0.627E-14   0.309E-17 0.153E-16 0.164E-16   -.569E-24 0.465E-24 0.155E-24   -.541E-17 -.565E-17 -.547E-17

 POSITION                                       TOTAL-FORCE (eV/Angst)
      0.00000      0.00000      0.00000         0.000000      0.000000      0.000000
    total drift:                                0.000000      0.000000      0.000000

  FREE ENERGIE OF THE ION-ELECTRON SYSTEM (eV)
  free  energy   TOTEN  =        -1.44388275 eV

  energy  without entropy=       -1.44333273  energy(sigma->0) =       -1.44369941

volume of typ            1:    63.6 %

total charge

# of ion       s       p       d       tot
    1        0.338   0.146   0.014   0.497

orbital moment (x)

[...]

orbital moment (y)

[...]

orbital moment (z)

# of ion     s             p             d             tot
    1     0.000000E+00  0.107379E-08  0.194131E-09  0.126792E-08