 vasp.5.4.4.18Apr17-6-g9f103f2a35 (build May 20 2018 16:52:39) complex

 executed on             LinuxIFC date 2022.10.30  22:44:07

 INCAR:
 POTCAR:    PAW Na
 POTCAR:    PAW Na
   VRHFIN =Na: s1p0

   TITEL  = PAW Na
   POMASS =   22.990; ZVAL   =    1.000    mass and valenz
   ENMAX  =  101.956; ENMIN  =   76.467 eV
   QCUT   =   -2.737; QGAM   =    5.475    optimization parameters

   Description
     l     E      TYP  RCUT    TYP  RCUT
     0   .000     23  2.200
     0  2.000     23  2.200
     1   .000     23  2.200
     2   .000     23  2.200

  PAW Na                                :

 POSCAR: Na
  positions in direct lattice
 exchange correlation table for  LEXCH =        2
   RHO(1)=    0.500       N(1)  =     2000
   RHO(2)=  100.500       N(2)  =     4000

 ion  position               nearest neighbor table
   1  0.000  0.000  0.000-

  LATTYP: Found a body centered cubic cell.
 ALAT       =     4.0400000000

  Lattice vectors:

 A1 = (  -2.0200000000,   2.0200000000,   2.0200000000)
 A2 = (   2.0200000000,  -2.0200000000,   2.0200000000)
 A3 = (   2.0200000000,   2.0200000000,  -2.0200000000)

Analysis of symmetry for initial positions (statically):
 Subroutine PRICEL returns:
 Original cell was already a primitive cell.

 Routine SETGRP: Setting up the symmetry group for a
 body centered cubic supercell.

 Subroutine GETGRP returns: Found 48 space group operations
 (whereof 48 operations were pure point group operations)
 out of a pool of 48 trial point group operations.

The static configuration has the point symmetry O_h .

Analysis of symmetry for dynamics (positions and initial velocities):
 Subroutine PRICEL returns:
 Original cell was already a primitive cell.

 Routine SETGRP: Setting up the symmetry group for a
 body centered cubic supercell.

 Subroutine GETGRP returns: Found 48 space group operations
 (whereof 48 operations were pure point group operations)
 out of a pool of 48 trial point group operations.

The dynamic configuration has the point symmetry O_h .

 Subroutine INISYM returns: Found 48 space group operations
 (whereof 48 operations are pure point group operations),
 and found     1 'primitive' translations

 KPOINTS: 20x20x20

Automatic generation of k-mesh.
Space group operators:
 irot       det(A)        alpha          n_x          n_y          n_z        tau_x        tau_y        tau_z
    1     1.000000     0.000001     1.000000     0.000000     0.000000     0.000000     0.000000     0.000000
    2    -1.000000     0.000001     1.000000     0.000000     0.000000     0.000000     0.000000     0.000000
    3     1.000000   120.000000    -0.577350    -0.577350    -0.577350     0.000000     0.000000     0.000000
    4    -1.000000   120.000000    -0.577350    -0.577350    -0.577350     0.000000     0.000000     0.000000
    5     1.000000   120.000000     0.577350     0.577350     0.577350     0.000000     0.000000     0.000000
    6    -1.000000   120.000000     0.577350     0.577350     0.577350     0.000000     0.000000     0.000000
    7     1.000000    90.000000     0.000000     0.000000    -1.000000     0.000000     0.000000     0.000000
    8    -1.000000    90.000000     0.000000     0.000000    -1.000000     0.000000     0.000000     0.000000
    9     1.000000   180.000000     0.000000     0.707107     0.707107     0.000000     0.000000     0.000000
   10    -1.000000   180.000000     0.000000     0.707107     0.707107     0.000000     0.000000     0.000000
   11     1.000000    90.000000     0.000000     1.000000     0.000000     0.000000     0.000000     0.000000
   12    -1.000000    90.000000     0.000000     1.000000     0.000000     0.000000     0.000000     0.000000
   13     1.000000   180.000000     0.000000     0.000000     1.000000     0.000000     0.000000     0.000000
   14    -1.000000   180.000000     0.000000     0.000000     1.000000     0.000000     0.000000     0.000000
   15     1.000000   120.000000    -0.577350     0.577350     0.577350     0.000000     0.000000     0.000000
   16    -1.000000   120.000000    -0.577350     0.577350     0.577350     0.000000     0.000000     0.000000
   17     1.000000   120.000000    -0.577350     0.577350    -0.577350     0.000000     0.000000     0.000000
   18    -1.000000   120.000000    -0.577350     0.577350    -0.577350     0.000000     0.000000     0.000000
   19     1.000000    90.000000     0.000000     0.000000     1.000000     0.000000     0.000000     0.000000
   20    -1.000000    90.000000     0.000000     0.000000     1.000000     0.000000     0.000000     0.000000
   21     1.000000    90.000000    -1.000000     0.000000     0.000000     0.000000     0.000000     0.000000
   22    -1.000000    90.000000    -1.000000     0.000000     0.000000     0.000000     0.000000     0.000000
   23     1.000000   180.000000     0.707107     0.000000     0.707107     0.000000     0.000000     0.000000
   24    -1.000000   180.000000     0.707107     0.000000     0.707107     0.000000     0.000000     0.000000
   25     1.000000   120.000000     0.577350    -0.577350     0.577350     0.000000     0.000000     0.000000
   26    -1.000000   120.000000     0.577350    -0.577350     0.577350     0.000000     0.000000     0.000000
   27     1.000000   120.000000    -0.577350    -0.577350     0.577350     0.000000     0.000000     0.000000
   28    -1.000000   120.000000    -0.577350    -0.577350     0.577350     0.000000     0.000000     0.000000
   29     1.000000   180.000000     1.000000     0.000000     0.000000     0.000000     0.000000     0.000000
   30    -1.000000   180.000000     1.000000     0.000000     0.000000     0.000000     0.000000     0.000000
   31     1.000000    90.000000     0.000000    -1.000000     0.000000     0.000000     0.000000     0.000000
   32    -1.000000    90.000000     0.000000    -1.000000     0.000000     0.000000     0.000000     0.000000
   33     1.000000   180.000000     0.707107     0.707107     0.000000     0.000000     0.000000     0.000000
   34    -1.000000   180.000000     0.707107     0.707107     0.000000     0.000000     0.000000     0.000000
   35     1.000000    90.000000     1.000000     0.000000     0.000000     0.000000     0.000000     0.000000
   36    -1.000000    90.000000     1.000000     0.000000     0.000000     0.000000     0.000000     0.000000
   37     1.000000   120.000000     0.577350    -0.577350    -0.577350     0.000000     0.000000     0.000000
   38    -1.000000   120.000000     0.577350    -0.577350    -0.577350     0.000000     0.000000     0.000000
   39     1.000000   180.000000     0.000000     1.000000     0.000000     0.000000     0.000000     0.000000
   40    -1.000000   180.000000     0.000000     1.000000     0.000000     0.000000     0.000000     0.000000
   41     1.000000   120.000000     0.577350     0.577350    -0.577350     0.000000     0.000000     0.000000
   42    -1.000000   120.000000     0.577350     0.577350    -0.577350     0.000000     0.000000     0.000000
   43     1.000000   180.000000     0.000000    -0.707107     0.707107     0.000000     0.000000     0.000000
   44    -1.000000   180.000000     0.000000    -0.707107     0.707107     0.000000     0.000000     0.000000
   45     1.000000   180.000000     0.707107    -0.707107     0.000000     0.000000     0.000000     0.000000
   46    -1.000000   180.000000     0.707107    -0.707107     0.000000     0.000000     0.000000     0.000000
   47     1.000000   180.000000     0.707107     0.000000    -0.707107     0.000000     0.000000     0.000000
   48    -1.000000   180.000000     0.707107     0.000000    -0.707107     0.000000     0.000000     0.000000

 Subroutine IBZKPT returns following result:

 Found    250 irreducible k-points:

 Following reciprocal coordinates:
            Coordinates               Weight
  0.025000  0.025000  0.025000      8.000000
  0.075000  0.025000  0.025000     24.000000
  0.125000  0.025000  0.025000     24.000000
  0.175000  0.025000  0.025000     24.000000
  0.225000  0.025000  0.025000     24.000000
  0.275000  0.025000  0.025000     24.000000
  0.325000  0.025000  0.025000     24.000000
  0.375000  0.025000  0.025000     24.000000
  0.425000  0.025000  0.025000     24.000000
  0.475000  0.025000  0.025000     12.000000
 -0.025000  0.025000  0.025000      6.000000
  0.075000  0.075000  0.025000     24.000000
  0.125000  0.075000  0.025000     48.000000
  0.175000  0.075000  0.025000     48.000000
  0.225000  0.075000  0.025000     48.000000
  0.275000  0.075000  0.025000     48.000000
  0.325000  0.075000  0.025000     48.000000
  0.375000  0.075000  0.025000     48.000000
  0.425000  0.075000  0.025000     48.000000
 -0.075000  0.075000  0.025000     24.000000
  0.125000  0.125000  0.025000     24.000000
  0.175000  0.125000  0.025000     48.000000
  0.225000  0.125000  0.025000     48.000000
  0.275000  0.125000  0.025000     48.000000
  0.325000  0.125000  0.025000     48.000000
  0.375000  0.125000  0.025000     48.000000
  0.425000  0.125000  0.025000     24.000000
 -0.125000  0.125000  0.025000     24.000000
 -0.075000  0.125000  0.025000     24.000000
  0.175000  0.175000  0.025000     24.000000
  0.225000  0.175000  0.025000     48.000000
  0.275000  0.175000  0.025000     48.000000
  0.325000  0.175000  0.025000     48.000000
  0.375000  0.175000  0.025000     48.000000
 -0.175000  0.175000  0.025000     24.000000
 -0.125000  0.175000  0.025000     48.000000
  0.225000  0.225000  0.025000     24.000000
  0.275000  0.225000  0.025000     48.000000
  0.325000  0.225000  0.025000     48.000000
  0.375000  0.225000  0.025000     24.000000
 -0.225000  0.225000  0.025000     24.000000
 -0.175000  0.225000  0.025000     48.000000
 -0.125000  0.225000  0.025000     24.000000
  0.275000  0.275000  0.025000     24.000000
  0.325000  0.275000  0.025000     48.000000
 -0.275000  0.275000  0.025000     24.000000
 -0.225000  0.275000  0.025000     48.000000
 -0.175000  0.275000  0.025000     48.000000
  0.325000  0.325000  0.025000      8.000000
 -0.325000  0.325000  0.025000     24.000000
 -0.275000  0.325000  0.025000     48.000000
 -0.225000  0.325000  0.025000     48.000000
 -0.175000  0.325000  0.025000     24.000000
 -0.375000  0.375000  0.025000     24.000000
 -0.325000  0.375000  0.025000     48.000000
 -0.275000  0.375000  0.025000     48.000000
 -0.225000  0.375000  0.025000     48.000000
 -0.425000  0.425000  0.025000     24.000000
 -0.375000  0.425000  0.025000     48.000000
 -0.325000  0.425000  0.025000     48.000000
[...]
 -0.425000  0.425000  0.325000     24.000000
 -0.375000  0.425000  0.325000     24.000000
 -0.475000  0.475000  0.325000     24.000000
 -0.425000  0.475000  0.325000     48.000000
 -0.475000 -0.475000  0.325000     24.000000
 -0.425000 -0.475000  0.325000     24.000000
 -0.375000  0.375000  0.375000      6.000000
 -0.425000  0.425000  0.375000     24.000000
 -0.475000  0.475000  0.375000     24.000000
 -0.425000  0.475000  0.375000     24.000000
 -0.475000 -0.475000  0.375000     24.000000
 -0.425000  0.425000  0.425000      6.000000
 -0.475000  0.475000  0.425000     24.000000
 -0.475000 -0.475000  0.425000      8.000000
 -0.475000  0.475000  0.475000      6.000000

[...]
 k-point 49 :   0.3250 0.3250 0.0250  plane waves:      77
 k-point 50 :  -0.3250 0.3250 0.0250  plane waves:      77
 k-point 51 :  -0.2750 0.3250 0.0250  plane waves:      74
 k-point 52 :  -0.2250 0.3250 0.0250  plane waves:      72
 k-point 53 :  -0.1750 0.3250 0.0250  plane waves:      74
 k-point 54 :  -0.3750 0.3750 0.0250  plane waves:      74
 k-point 55 :  -0.3250 0.3750 0.0250  plane waves:      76
 k-point 56 :  -0.2750 0.3750 0.0250  plane waves:      76
 k-point 57 :  -0.2250 0.3750 0.0250  plane waves:      75
 k-point 58 :  -0.4250 0.4250 0.0250  plane waves:      76
 k-point 59 :  -0.3750 0.4250 0.0250  plane waves:      75
 k-point 60 :  -0.3250 0.4250 0.0250  plane waves:      75
[...]
 k-point 85 :   0.4250 0.0750 0.0750  plane waves:      76
 k-point 86 :  -0.0750 0.0750 0.0750  plane waves:      79
 k-point 87 :   0.1250 0.1250 0.0750  plane waves:      72
 k-point 88 :   0.1750 0.1250 0.0750  plane waves:      72
 k-point 89 :   0.2250 0.1250 0.0750  plane waves:      76
 k-point 90 :   0.2750 0.1250 0.0750  plane waves:      78
 k-point 91 :   0.3250 0.1250 0.0750  plane waves:      78
 k-point 92 :   0.3750 0.1250 0.0750  plane waves:      76
 k-point 93 :  -0.1250 0.1250 0.0750  plane waves:      77
 k-point 94 :   0.1750 0.1750 0.0750  plane waves:      78
 k-point 95 :   0.2250 0.1750 0.0750  plane waves:      76
 k-point 96 :   0.2750 0.1750 0.0750  plane waves:      77
 k-point 97 :   0.3250 0.1750 0.0750  plane waves:      75
 k-point 98 :   0.3750 0.1750 0.0750  plane waves:      75
 k-point 99 :  -0.1750 0.1750 0.0750  plane waves:      76
 k-point ** :  -0.1250 0.1750 0.0750  plane waves:      76
 k-point ** :   0.2250 0.2250 0.0750  plane waves:      74
 k-point ** :   0.2750 0.2250 0.0750  plane waves:      77
 k-point ** :   0.3250 0.2250 0.0750  plane waves:      76
 k-point ** :  -0.2250 0.2250 0.0750  plane waves:      76
 k-point ** :  -0.1750 0.2250 0.0750  plane waves:      76
 k-point ** :   0.2750 0.2750 0.0750  plane waves:      77
 k-point ** :   0.3250 0.2750 0.0750  plane waves:      77
 k-point ** :  -0.2750 0.2750 0.0750  plane waves:      74
 k-point ** :  -0.2250 0.2750 0.0750  plane waves:      74
 k-point ** :  -0.1750 0.2750 0.0750  plane waves:      76
 k-point ** :  -0.3250 0.3250 0.0750  plane waves:      76
 k-point ** :  -0.2750 0.3250 0.0750  plane waves:      74
 k-point ** :  -0.2250 0.3250 0.0750  plane waves:      75
 k-point ** :  -0.3750 0.3750 0.0750  plane waves:      76
 k-point ** :  -0.3250 0.3750 0.0750  plane waves:      75
 k-point ** :  -0.2750 0.3750 0.0750  plane waves:      77
 k-point ** :  -0.2250 0.3750 0.0750  plane waves:      76
 k-point ** :  -0.4250 0.4250 0.0750  plane waves:      74
 k-point ** :  -0.3750 0.4250 0.0750  plane waves:      76
 k-point ** :  -0.3250 0.4250 0.0750  plane waves:      77
 k-point ** :  -0.2750 0.4250 0.0750  plane waves:      77
 k-point ** :  -0.4750 0.4750 0.0750  plane waves:      76
 k-point ** :  -0.4250 0.4750 0.0750  plane waves:      76
 k-point ** :  -0.3750 0.4750 0.0750  plane waves:      78
 k-point ** :  -0.3250 0.4750 0.0750  plane waves:      78
 k-point ** :  -0.2750 0.4750 0.0750  plane waves:      76
 k-point ** :  -0.4750-0.4750 0.0750  plane waves:      76
 k-point ** :  -0.4250-0.4750 0.0750  plane waves:      76
 k-point ** :  -0.3750-0.4750 0.0750  plane waves:      79
 k-point ** :  -0.3250-0.4750 0.0750  plane waves:      79
 k-point ** :  -0.4250-0.4250 0.0750  plane waves:      80
 k-point ** :  -0.3750-0.4250 0.0750  plane waves:      80
 k-point ** :  -0.3250-0.4250 0.0750  plane waves:      80
 k-point ** :  -0.3750-0.3750 0.0750  plane waves:      82
 k-point ** :   0.1250 0.1250 0.1250  plane waves:      68
 k-point ** :   0.1750 0.1250 0.1250  plane waves:      75
 k-point ** :   0.2250 0.1250 0.1250  plane waves:      74
 k-point ** :   0.2750 0.1250 0.1250  plane waves:      76
 k-point ** :   0.3250 0.1250 0.1250  plane waves:      74
 k-point ** :   0.3750 0.1250 0.1250  plane waves:      76
 k-point ** :  -0.1250 0.1250 0.1250  plane waves:      79
 k-point ** :   0.1750 0.1750 0.1250  plane waves:      76
 k-point ** :   0.2250 0.1750 0.1250  plane waves:      74
 k-point ** :   0.2750 0.1750 0.1250  plane waves:      75
 k-point ** :   0.3250 0.1750 0.1250  plane waves:      74
 k-point ** :  -0.1750 0.1750 0.1250  plane waves:      77
 k-point ** :   0.2250 0.2250 0.1250  plane waves:      75
 k-point ** :   0.2750 0.2250 0.1250  plane waves:      76
 k-point ** :   0.3250 0.2250 0.1250  plane waves:      76
 k-point ** :  -0.2250 0.2250 0.1250  plane waves:      76
 k-point ** :  -0.1750 0.2250 0.1250  plane waves:      76
 k-point ** :   0.2750 0.2750 0.1250  plane waves:      77
 k-point ** :  -0.2750 0.2750 0.1250  plane waves:      74
 k-point ** :  -0.2250 0.2750 0.1250  plane waves:      76
 k-point ** :  -0.3250 0.3250 0.1250  plane waves:      74
 k-point ** :  -0.2750 0.3250 0.1250  plane waves:      78
 k-point ** :  -0.2250 0.3250 0.1250  plane waves:      78
 k-point ** :  -0.3750 0.3750 0.1250  plane waves:      77
 k-point ** :  -0.3250 0.3750 0.1250  plane waves:      77
[...]
 k-point ** :  -0.4250 0.4250 0.3250  plane waves:      80
 k-point ** :  -0.3750 0.4250 0.3250  plane waves:      80
 k-point ** :  -0.4750 0.4750 0.3250  plane waves:      80
 k-point ** :  -0.4250 0.4750 0.3250  plane waves:      80
 k-point ** :  -0.4750-0.4750 0.3250  plane waves:      80
 k-point ** :  -0.4250-0.4750 0.3250  plane waves:      80
 k-point ** :  -0.3750 0.3750 0.3750  plane waves:      80
 k-point ** :  -0.4250 0.4250 0.3750  plane waves:      80
 k-point ** :  -0.4750 0.4750 0.3750  plane waves:      80
 k-point ** :  -0.4250 0.4750 0.3750  plane waves:      80
 k-point ** :  -0.4750-0.4750 0.3750  plane waves:      80
 k-point ** :  -0.4250 0.4250 0.4250  plane waves:      80
 k-point ** :  -0.4750 0.4750 0.4250  plane waves:      80
 k-point ** :  -0.4750-0.4750 0.4250  plane waves:      80
 k-point ** :  -0.4750 0.4750 0.4750  plane waves:      80

 maximum and minimum number of plane-waves per node :        83       68

 maximum number of plane-waves:        83
 maximum index in each direction:
   IXMAX=    3   IYMAX=    3   IZMAX=    2
   IXMIN=   -3   IYMIN=   -3   IZMIN=   -3

 serial   3D FFT for wavefunctions
 parallel 3D FFT for charge:
    minimum data exchange during FFTs selected (reduces bandwidth)

 Broyden mixing: mesh for mixing (old mesh)
   NGX =  5   NGY =  5   NGZ =  5
  (NGX  = 20   NGY  = 20   NGZ  = 20)
  gives a total of    125 points

 initial charge density was supplied:
 charge density of overlapping atoms calculated
 number of electron       1.0000000 magnetization
 keeping initial charge density in first step

 Maximum index for augmentation-charges         1459 (set IRDMAX)

 First call to EWALD:  gamma=   0.553
 Maximum number of real-space cells 3x 3x 3
 Maximum number of reciprocal cells 3x 3x 3

--------------------------------------- Iteration      1(   1)  ---------------------------------------

 eigenvalue-minimisations  :  2416
 total energy-change (2. order) :-0.1372579E+01  (-0.7092980E+01)
 number of electron       1.0000000 magnetization
 augmentation part        1.0000000 magnetization

 Free energy of the ion-electron system (eV)
  alpha Z        PSCENC =        -0.62140126
  Ewald energy   TEWEN  =        -6.48566672
  -Hartree energ DENC   =        -0.00388453
  -exchange      EXHF   =         0.00000000
  -V(xc)+E(xc)   XCENC  =       -35.74129089
  PAW double counting   =        36.61933760        0.11055659
  entropy T*S    EENTRO =        -0.00114474
  eigenvalues    EBANDS =        -0.43703596
  atomic energy  EATOM  =         5.18795064
  Solvation  Ediel_sol  =         0.00000000
  free energy    TOTEN  =        -1.37257929 eV

  energy without entropy =       -1.37143455  energy(sigma->0) =       -1.37219771

[...]

 Broyden mixing:
  rms(total) = 0.20527E-01    rms(broyden)= 0.20324E-01
  rms(prec ) = 0.84523E-01
  weight for this iteration     100.00

[...]

 eigenvalue-minimisations  :  2260
 total energy-change (2. order) : 0.8667255E-03  (-0.1983095E-05)
 number of electron       0.9999998 magnetization
 augmentation part        0.0108839 magnetization

[...]

 eigenvalues of (default mixing * dielectric matrix)
  average eigenvalue GAMMA=   2.9454
  2.9454

[...]

 eigenvalues of (default mixing * dielectric matrix)
  average eigenvalue GAMMA=   2.1599
  3.0022  2.6165  0.8610

[...]

 eigenvalue-minimisations  :  2372
 total energy-change (2. order) : 0.1664732E-06  (-0.3136599E-07)
 number of electron       0.9999998 magnetization
 augmentation part        0.0108338 magnetization

[...]

 average (electrostatic) potential at core
  the test charge radii are     1.1212
  (the norm of the test charge is              1.0000)
       1 -43.9661

 E-fermi :   0.8508     XC(G=0):  -6.7389     alpha+bet : -5.5320

 k-point     1 :       0.0250    0.0250    0.0250
  band No.  band energies     occupation
      1      -2.6299      2.00000
      2      12.5185      0.00000
      3      12.5185      0.00000
      4      12.7006      0.00000

[...]

 soft charge-density along one line, spin component           1
         0         1         2         3         4         5         6         7         8         9
 total charge-density along one line

------------------------ aborting loop because EDIFF is reached ----------------------------------------

  FORCE on cell =-STRESS in cart. coord.  units (eV):
  Direction    XX          YY          ZZ          XY          YZ          ZX
  Alpha Z    -0.62140    -0.62140    -0.62140
  Ewald      -2.16189    -2.16189    -2.16189     0.00000    -0.00000     0.00000
  Hartree     0.00546     0.00546     0.00546    -0.00000    -0.00000    -0.00000
  E(xc)      -2.25127    -2.25127    -2.25127    -0.00000    -0.00000    -0.00000
  Local       0.47801     0.47801     0.47801     0.00000     0.00000     0.00000
  n-local     2.75136     2.73894     2.73975    -0.01478     0.01111     0.01100
  augment     0.13356     0.13356     0.13356    -0.00000    -0.00000    -0.00000
  Kinetic     2.62910     1.28435     1.13277    -0.62608     0.45221     0.66477
  Fock        0.00000     0.00000     0.00000     0.00000     0.00000     0.00000
  Total       0.00790     0.00790     0.00790     0.00000     0.00000    -0.00000
  in kB       0.38397     0.38397     0.38397     0.00000     0.00000    -0.00000

 VOLUME and BASIS-vectors are now :
  energy-cutoff  :      101.96
  volume of cell :       32.97
      direct lattice vectors                 reciprocal lattice vectors
    -2.020000000  2.020000000  2.020000000     0.000000000  0.247524752  0.247524752
     2.020000000 -2.020000000  2.020000000     0.247524752  0.000000000  0.247524752
     2.020000000  2.020000000 -2.020000000     0.247524752  0.247524752  0.000000000

[...]

 FORCES acting on ions
    electron-ion (+dipol)            ewald-force                    non-local-force                 convergence-correction
   0.439E-14 0.612E-14 0.463E-14   0.876E-17 -.101E-16 -.101E-16   -.258E-25 -.103E-24 0.103E-24   -.521E-17 -.444E-17 -.412E-17
   0.439E-14 0.612E-14 0.463E-14   0.876E-17 -.101E-16 -.101E-16   -.258E-25 -.103E-24 0.103E-24   -.521E-17 -.444E-17 -.412E-17

 POSITION                                       TOTAL-FORCE (eV/Angst)
      0.00000      0.00000      0.00000         0.000000      0.000000     -0.000000
    total drift:                                0.000000      0.000000      0.000000

  FREE ENERGIE OF THE ION-ELECTRON SYSTEM (eV)
  free  energy   TOTEN  =        -1.44683354 eV

  energy  without entropy=       -1.44630560  energy(sigma->0) =       -1.44665756

[...]

 d Force = 0.0000000E+00[ 0.000E+00, 0.000E+00]  d Energy = 0.7645727E-05-0.765E-05
 d Force = 0.0000000E+00[ 0.000E+00, 0.000E+00]  d Ewald  =-0.2471299E-02 0.247E-02

 Steepest descent step on ions:
 trial-energy change:   -0.000008  1 .order   -0.000008   -0.000009   -0.000006
  (g-gl).g = 0.904E-05      g.g   = 0.904E-05  gl.gl    = 0.000E+00
 g(Force)  = 0.586E-64   g(Stress)= 0.904E-05 ortho     = 0.000E+00
 gamma     =   0.00000
 trial     =   1.00000
 opt step  =   3.45495  (harmonic =   3.45495) maximal distance =0.00000000
 next E    =    -1.446849   (d E  =  -0.00002)

[...]

 Broyden mixing:
  rms(total) = 0.10625E-03    rms(broyden)= 0.10601E-03
  rms(prec ) = 0.40713E-03
  weight for this iteration     100.00

[...]

--------------------------------------- Iteration      3(   2)  ---------------------------------------

 eigenvalue-minimisations  :  1556
 total energy-change (2. order) :-0.9224635E-08  (-0.2105664E-07)
 number of electron       0.9999998 magnetization
 augmentation part        0.0107695 magnetization

 Free energy of the ion-electron system (eV)
  alpha Z        PSCENC =        -0.61895260
  Ewald energy   TEWEN  =        -6.47713649
  -Hartree energ DENC   =        -0.01629737
  -exchange      EXHF   =         0.00000000
  -V(xc)+E(xc)   XCENC  =       -35.69204177
  PAW double counting   =        36.65666988        0.06807895
  entropy T*S    EENTRO =        -0.00052908
  eigenvalues    EBANDS =        -0.55459114
  atomic energy  EATOM  =         5.18795064
  Solvation  Ediel_sol  =         0.00000000
  free energy    TOTEN  =        -1.44684899 eV

  energy without entropy =       -1.44631991  energy(sigma->0) =       -1.44667263

 average (electrostatic) potential at core
  the test charge radii are     1.1212
  (the norm of the test charge is              1.0000)
       1 -43.9832

 E-fermi :   0.8370     XC(G=0):  -6.7287     alpha+bet : -5.5102

[...]

 k-point   250 :      -0.4750    0.4750    0.4750
  band No.  band energies     occupation
      1       5.1023     -0.00000
      2       5.6277     -0.00000
      3       6.0624     -0.00000
      4       6.0624     -0.00000

 soft charge-density along one line, spin component           1
         0         1         2         3         4         5         6         7         8         9
 total charge-density along one line

------------------------ aborting loop because EDIFF is reached ----------------------------------------

  FORCE on cell =-STRESS in cart. coord.  units (eV):
  Direction    XX          YY          ZZ          XY          YZ          ZX
  Alpha Z    -0.61895    -0.61895    -0.61895
  Ewald      -2.15905    -2.15905    -2.15905     0.00000     0.00000    -0.00000
  Hartree     0.00541     0.00541     0.00541    -0.00000    -0.00000    -0.00000
  E(xc)      -2.24686    -2.24686    -2.24686    -0.00000    -0.00000    -0.00000
  Local       0.47601     0.47601     0.47601     0.00000     0.00000     0.00000
  n-local     2.74185     2.72951     2.73040    -0.01463     0.01102     0.01087
  augment     0.13277     0.13277     0.13277    -0.00000    -0.00000    -0.00000
  Kinetic     2.62166     1.27998     1.12881    -0.62454     0.45109     0.66317
  Fock        0.00000     0.00000     0.00000     0.00000     0.00000     0.00000
  Total       0.00008     0.00008     0.00008    -0.00000    -0.00000     0.00000
  in kB       0.00367     0.00367     0.00367    -0.00000    -0.00000     0.00000

 VOLUME and BASIS-vectors are now :
  energy-cutoff  :      101.96
  volume of cell :       33.10
      direct lattice vectors                 reciprocal lattice vectors
    -2.022660293  2.022660293  2.022660293     0.000000000  0.247199197  0.247199197
     2.022660293 -2.022660293  2.022660293     0.247199197  0.000000000  0.247199197
     2.022660293  2.022660293 -2.022660293     0.247199197  0.247199197  0.000000000

  length of vectors
     3.503350393  3.503350393  3.503350393     0.349592457  0.349592457  0.349592457

 FORCES acting on ions
    electron-ion (+dipol)            ewald-force                    non-local-force                 convergence-correction
   0.428E-14 0.557E-14 0.503E-14   0.826E-18 0.945E-18 -.223E-16   0.165E-23 -.414E-24 0.207E-24   -.124E-16 -.893E-17 -.119E-16
   0.428E-14 0.557E-14 0.503E-14   0.826E-18 0.945E-18 -.223E-16   0.165E-23 -.414E-24 0.207E-24   -.124E-16 -.893E-17 -.119E-16

 POSITION                                       TOTAL-FORCE (eV/Angst)
      0.00000      0.00000     -0.00000        -0.000000      0.000000     -0.000000
    total drift:                                0.000000      0.000000      0.000000

  FREE ENERGIE OF THE ION-ELECTRON SYSTEM (eV)
  free  energy   TOTEN  =        -1.44684899 eV

  energy  without entropy=       -1.44631991  energy(sigma->0) =       -1.44667263

 d Force = 0.0000000E+00[ 0.000E+00, 0.000E+00]  d Energy = 0.7807800E-05-0.781E-05
 d Force = 0.0000000E+00[ 0.000E+00, 0.000E+00]  d Ewald  =-0.6058938E-02 0.606E-02

 reached required accuracy - stopping structural energy minimisation