 vasp.5.3.5 31Mar14 (build Dec 14 2018 19:18:10) complex

 INCAR:
 POTCAR:    PAW Si
 POTCAR:    PAW Si
   VRHFIN =Si: s2p2

   TITEL  = PAW Si
   POMASS =   28.085; ZVAL   =    4.000    mass and valenz
   ENMAX  =  245.435; ENMIN  =  184.076 eV
   QCUT   =   -4.247; QGAM   =    8.494    optimization parameters

   Description
     l     E      TYP  RCUT    TYP  RCUT
     0   .000     23  1.900
     0   .000     23  1.900
     1   .000     23  1.900
     1   .000     23  1.900
     2   .000      7  1.900

  PAW Si                                :

 POSCAR: Si diamond structure
  positions in direct lattice
  velocities in cartesian coordinates
 exchange correlation table for  LEXCH =        7
   RHO(1)=    0.500       N(1)  =     2000
   RHO(2)=  100.500       N(2)  =     4000

 ion  position               nearest neighbor table
   1  0.000  0.000  0.000-   2 2.35   2 2.35   2 2.35   2 2.35
   2  0.250  0.250  0.250-   1 2.35   1 2.35   1 2.35   1 2.35

  LATTYP: Found a face centered cubic cell.
 ALAT       =     5.4300000000

  Lattice vectors:

 A1 = (   2.7150000000,   2.7150000000,   0.0000000000)
 A2 = (   0.0000000000,   2.7150000000,   2.7150000000)
 A3 = (   2.7150000000,   0.0000000000,   2.7150000000)

Analysis of symmetry for initial positions (statically):
 Subroutine PRICEL returns:
 Original cell was already a primitive cell.

 Routine SETGRP: Setting up the symmetry group for a
 face centered cubic supercell.

 Subroutine GETGRP returns: Found 48 space group operations
 (whereof 24 operations were pure point group operations)
 out of a pool of 48 trial point group operations.

The static configuration has the point symmetry T_d .
 The point group associated with its full space group is O_h .

Analysis of symmetry for dynamics (positions and initial velocities):
 Subroutine PRICEL returns:
 Original cell was already a primitive cell.

 Routine SETGRP: Setting up the symmetry group for a
 face centered cubic supercell.

 Subroutine GETGRP returns: Found 48 space group operations
 (whereof 24 operations were pure point group operations)
 out of a pool of 48 trial point group operations.

The dynamic configuration has the point symmetry T_d .
 The point group associated with its full space group is O_h .

 KPOINTS: 10X10x10

Automatic generation of k-mesh.
Space group operators:
 irot       det(A)        alpha          n_x          n_y          n_z        tau_x        tau_y        tau_z
    1     1.000000     0.000001     1.000000     0.000000     0.000000     0.000000     0.000000     0.000000
    2     1.000000   120.000000    -0.577350    -0.577350    -0.577350     0.000000     0.000000     0.000000
    3     1.000000   120.000000     0.577350     0.577350     0.577350     0.000000     0.000000     0.000000
    4    -1.000000    90.000000     0.000000    -1.000000     0.000000     0.000000     0.000000     0.000000
    5    -1.000000   180.000000     0.707107     0.707107     0.000000     0.000000     0.000000     0.000000
    6    -1.000000    90.000000     1.000000     0.000000     0.000000     0.000000     0.000000     0.000000
    7     1.000000   180.000000     0.000000     1.000000     0.000000     0.000000     0.000000     0.000000
    8     1.000000   120.000000     0.577350     0.577350    -0.577350     0.000000     0.000000     0.000000
    9     1.000000   120.000000     0.577350    -0.577350    -0.577350     0.000000     0.000000     0.000000
   10    -1.000000    90.000000     0.000000     1.000000     0.000000     0.000000     0.000000     0.000000
   11    -1.000000    90.000000     0.000000     0.000000    -1.000000     0.000000     0.000000     0.000000
   12    -1.000000   180.000000     0.000000     0.707107     0.707107     0.000000     0.000000     0.000000
   13     1.000000   120.000000    -0.577350     0.577350     0.577350     0.000000     0.000000     0.000000
   14     1.000000   120.000000    -0.577350     0.577350    -0.577350     0.000000     0.000000     0.000000
   15     1.000000   180.000000     0.000000     0.000000     1.000000     0.000000     0.000000     0.000000
   16    -1.000000    90.000000    -1.000000     0.000000     0.000000     0.000000     0.000000     0.000000
   17    -1.000000   180.000000     0.707107     0.000000     0.707107     0.000000     0.000000     0.000000
   18    -1.000000    90.000000     0.000000     0.000000     1.000000     0.000000     0.000000     0.000000
   19     1.000000   120.000000    -0.577350    -0.577350     0.577350     0.000000     0.000000     0.000000
   20     1.000000   180.000000     1.000000     0.000000     0.000000     0.000000     0.000000     0.000000
   21     1.000000   120.000000     0.577350    -0.577350     0.577350     0.000000     0.000000     0.000000
   22    -1.000000   180.000000     0.707107    -0.707107     0.000000     0.000000     0.000000     0.000000
   23    -1.000000   180.000000     0.707107     0.000000    -0.707107     0.000000     0.000000     0.000000
   24    -1.000000   180.000000     0.000000    -0.707107     0.707107     0.000000     0.000000     0.000000
   25    -1.000000     0.000001     1.000000     0.000000     0.000000     0.250000     0.250000     0.250000
   26    -1.000000   120.000000    -0.577350    -0.577350    -0.577350     0.250000     0.250000     0.250000
   27    -1.000000   120.000000     0.577350     0.577350     0.577350     0.250000     0.250000     0.250000
   28     1.000000    90.000000     0.000000    -1.000000     0.000000     0.250000     0.250000     0.250000
   29     1.000000   180.000000     0.707107     0.707107     0.000000     0.250000     0.250000     0.250000
   30     1.000000    90.000000     1.000000     0.000000     0.000000     0.250000     0.250000     0.250000
   31    -1.000000   180.000000     0.000000     1.000000     0.000000     0.250000     0.250000     0.250000
   32    -1.000000   120.000000     0.577350     0.577350    -0.577350     0.250000     0.250000     0.250000
   33    -1.000000   120.000000     0.577350    -0.577350    -0.577350     0.250000     0.250000     0.250000
   34     1.000000    90.000000     0.000000     1.000000     0.000000     0.250000     0.250000     0.250000
   35     1.000000    90.000000     0.000000     0.000000    -1.000000     0.250000     0.250000     0.250000
   36     1.000000   180.000000     0.000000     0.707107     0.707107     0.250000     0.250000     0.250000
   37    -1.000000   120.000000    -0.577350     0.577350     0.577350     0.250000     0.250000     0.250000
   38    -1.000000   120.000000    -0.577350     0.577350    -0.577350     0.250000     0.250000     0.250000
   39    -1.000000   180.000000     0.000000     0.000000     1.000000     0.250000     0.250000     0.250000
   40     1.000000    90.000000    -1.000000     0.000000     0.000000     0.250000     0.250000     0.250000
   41     1.000000   180.000000     0.707107     0.000000     0.707107     0.250000     0.250000     0.250000
   42     1.000000    90.000000     0.000000     0.000000     1.000000     0.250000     0.250000     0.250000
   43    -1.000000   120.000000    -0.577350    -0.577350     0.577350     0.250000     0.250000     0.250000
   44    -1.000000   180.000000     1.000000     0.000000     0.000000     0.250000     0.250000     0.250000
   45    -1.000000   120.000000     0.577350    -0.577350     0.577350     0.250000     0.250000     0.250000
   46     1.000000   180.000000     0.707107    -0.707107     0.000000     0.250000     0.250000     0.250000
   47     1.000000   180.000000     0.707107     0.000000    -0.707107     0.250000     0.250000     0.250000
   48     1.000000   180.000000     0.000000    -0.707107     0.707107     0.250000     0.250000     0.250000

 Subroutine IBZKPT returns following result:

 Found    110 irreducible k-points:

 Following reciprocal coordinates:
            Coordinates               Weight
  0.050000  0.050000  0.050000     96.000000
  0.150000  0.050000  0.050000    288.000000
  0.250000  0.050000  0.050000    288.000000
  0.350000  0.050000  0.050000    288.000000
  0.450000  0.050000  0.050000    288.000000
 -0.450000  0.050000  0.050000    288.000000
 -0.350000  0.050000  0.050000    288.000000
 -0.250000  0.050000  0.050000    288.000000
 -0.150000  0.050000  0.050000    288.000000
 -0.050000  0.050000  0.050000    288.000000
  0.150000  0.150000  0.050000    288.000000
  0.250000  0.150000  0.050000    576.000000
  0.350000  0.150000  0.050000    576.000000
  0.450000  0.150000  0.050000    576.000000
 -0.450000  0.150000  0.050000    576.000000
 -0.350000  0.150000  0.050000    576.000000
 -0.250000  0.150000  0.050000    576.000000
 -0.150000  0.150000  0.050000    576.000000
 -0.050000  0.150000  0.050000    576.000000
  0.250000  0.250000  0.050000    288.000000
  0.350000  0.250000  0.050000    576.000000
  0.450000  0.250000  0.050000    576.000000
 -0.450000  0.250000  0.050000    576.000000
 -0.350000  0.250000  0.050000    576.000000
 -0.250000  0.250000  0.050000    576.000000
 -0.150000  0.250000  0.050000    576.000000
 -0.050000  0.250000  0.050000    576.000000
  0.350000  0.350000  0.050000    288.000000
  0.450000  0.350000  0.050000    576.000000
 -0.450000  0.350000  0.050000    576.000000
 -0.350000  0.350000  0.050000    576.000000
 -0.250000  0.350000  0.050000    576.000000
 -0.150000  0.350000  0.050000    576.000000
 -0.050000  0.350000  0.050000    576.000000
  0.450000  0.450000  0.050000    288.000000
 -0.450000  0.450000  0.050000    576.000000
 -0.350000  0.450000  0.050000    576.000000
 -0.250000  0.450000  0.050000    576.000000
 -0.150000  0.450000  0.050000    576.000000
 -0.050000  0.450000  0.050000    576.000000
 -0.450000 -0.450000  0.050000    288.000000
 -0.350000 -0.450000  0.050000    576.000000
 -0.250000 -0.450000  0.050000    576.000000
 -0.150000 -0.450000  0.050000    576.000000
 -0.350000 -0.350000  0.050000    288.000000
 -0.250000 -0.350000  0.050000    576.000000
 -0.150000 -0.350000  0.050000    576.000000
 -0.250000 -0.250000  0.050000    288.000000
 -0.150000 -0.250000  0.050000    576.000000
 -0.150000 -0.150000  0.050000    288.000000
  0.150000  0.150000  0.150000     96.000000
  0.250000  0.150000  0.150000    288.000000
  0.350000  0.150000  0.150000    288.000000
  0.450000  0.150000  0.150000    288.000000
 -0.450000  0.150000  0.150000    288.000000
 -0.350000  0.150000  0.150000    288.000000
 -0.250000  0.150000  0.150000    288.000000
 -0.150000  0.150000  0.150000    288.000000
  0.250000  0.250000  0.150000    288.000000
  0.350000  0.250000  0.150000    576.000000
[...]
 -0.350000  0.450000  0.250000    576.000000
 -0.250000  0.450000  0.250000    576.000000
 -0.450000 -0.450000  0.250000    288.000000
 -0.350000 -0.450000  0.250000    576.000000
 -0.350000 -0.350000  0.250000    288.000000
  0.350000  0.350000  0.350000     96.000000
  0.450000  0.350000  0.350000    288.000000
 -0.450000  0.350000  0.350000    288.000000
 -0.350000  0.350000  0.350000    288.000000
  0.450000  0.450000  0.350000    288.000000
 -0.450000  0.450000  0.350000    576.000000
 -0.350000  0.450000  0.350000    576.000000
 -0.450000 -0.450000  0.350000    288.000000
[...]
z     0.0000    0.0000   -0.0000   -0.0000    0.0000   -0.0000   -0.0000    0.0000    0.0000    0.0000
z     0.0000    0.0000   -0.0000   -0.0000

------------------------ aborting loop because EDIFF is reached ----------------------------------------

  FORCE on cell =-STRESS in cart. coord.  units (eV):
  Direction    XX          YY          ZZ          XY          YZ          ZX
  Alpha Z     3.24299     3.24299     3.24299
  Ewald     -76.18788   -76.18788   -76.18788    -0.00000     0.00000     0.00000
  Hartree     4.99908     4.99908     4.99908    -0.00000    -0.00000    -0.00000
  E(xc)     -25.49198   -25.49198   -25.49198     0.00001     0.00001     0.00001
  Local     -29.65920   -29.65920   -29.65920     0.00005     0.00005     0.00005
  n-local    81.00426    76.03764    78.50494    -1.13445     0.02770     1.09327
  augment   -11.80533   -11.80533   -11.80533    -0.00005    -0.00005    -0.00005
  Kinetic    56.15982    55.88460    58.43171    -0.88497     0.02729     0.84770
  Fock        0.00000     0.00000     0.00000     0.00000     0.00000     0.00000
  Total       0.43866     0.43866     0.43866     0.00000    -0.00000    -0.00000
  in kB      17.55895    17.55895    17.55895     0.00000    -0.00000    -0.00000

 VOLUME and BASIS-vectors are now :
  energy-cutoff  :      245.44
  volume of cell :       40.03
      direct lattice vectors                 reciprocal lattice vectors
     2.715000000  2.715000000  0.000000000     0.184162063  0.184162063 -0.184162063
     0.000000000  2.715000000  2.715000000    -0.184162063  0.184162063  0.184162063
     2.715000000  0.000000000  2.715000000     0.184162063 -0.184162063  0.184162063

  length of vectors
     3.839589822  3.839589822  3.839589822     0.318978049  0.318978049  0.318978049

 FORCES acting on ions
    electron-ion (+dipol)            ewald-force                    non-local-force                 convergence-correction
   -.110E-05 -.110E-05 -.110E-05   -.273E-14 0.111E-14 0.310E-14   0.416E-16 0.279E-16 0.416E-16   -.167E-05 -.167E-05 -.167E-05
   0.110E-05 0.110E-05 0.110E-05   0.315E-14 -.993E-15 -.291E-14   -.382E-16 -.388E-16 -.382E-16   0.167E-05 0.167E-05 0.167E-05
   -.395E-14 0.164E-15 -.254E-14   0.422E-15 0.120E-15 0.187E-15   0.347E-17 -.110E-16 0.347E-17   0.619E-15 0.240E-14 0.102E-14

 POSITION                                       TOTAL-FORCE (eV/Angst)
      0.00000      0.00000      0.00000        -0.000000     -0.000000     -0.000000
      1.35750      1.35750      1.35750         0.000000      0.000000      0.000000
    total drift:                               -0.000000      0.000000     -0.000000

  FREE ENERGIE OF THE ION-ELECTRON SYSTEM (eV)
  free  energy   TOTEN  =       -10.83437594 eV

  energy  without entropy=      -10.83437594  energy(sigma->0) =      -10.83437594

 writing wavefunctions

 plasma frequency squared (from intraband transitions)
       0.000       0.000       0.000
       0.000       0.000       0.000
       0.000       0.000       0.000

 electrical conductivity sigma (Mega S m-1) (frequency dependency in vasprun.xml)
       0.000       0.000       0.000
       0.000       0.000       0.000
       0.000       0.000       0.000

 plasma frequency squared (from intraband transitions)

 plasma frequency squared (from interband transitions, int dw w eps(2)(w)
     214.665       0.000       0.000
       0.000     214.665      -0.000
       0.000      -0.000     214.665
 plasma frequency squared  (valence only):     275.596

  frequency dependent IMAGINARY DIELECTRIC FUNCTION (independent particle, no local field effects)
     E(ev)      X         Y         Z        XY        YZ        ZX
    0.000000    0.000000    0.000000    0.000000    0.000000    0.000000    0.000000
    0.026027    0.004059    0.004059    0.004059    0.000000   -0.000000    0.000000
    0.052055    0.008120    0.008120    0.008120    0.000000   -0.000000    0.000000
    0.078082    0.012187    0.012187    0.012187    0.000000   -0.000000    0.000000
    0.104109    0.016261    0.016261    0.016261    0.000000   -0.000000    0.000000
    0.130137    0.020345    0.020345    0.020345    0.000000   -0.000000    0.000000
    0.156164    0.024442    0.024442    0.024442    0.000000   -0.000000    0.000000
    0.182191    0.028554    0.028554    0.028554    0.000000   -0.000000    0.000000
    0.208219    0.032684    0.032684    0.032684    0.000000   -0.000000    0.000000
    0.234246    0.036835    0.036835    0.036835    0.000000   -0.000000    0.000000
    0.260273    0.041009    0.041009    0.041009    0.000000   -0.000000    0.000000
    0.286301    0.045209    0.045209    0.045209    0.000000   -0.000000    0.000000
    0.312328    0.049437    0.049437    0.049437    0.000000   -0.000000    0.000000
    0.338355    0.053697    0.053697    0.053697    0.000000   -0.000000    0.000000
    0.364383    0.057992    0.057992    0.057992    0.000000   -0.000000    0.000000
    0.390410    0.062324    0.062324    0.062324    0.000000   -0.000000    0.000000
    0.416437    0.066696    0.066696    0.066696    0.000000   -0.000000    0.000000
    0.442465    0.071112    0.071112    0.071112    0.000000   -0.000000    0.000000
    0.468492    0.075574    0.075574    0.075574    0.000000   -0.000000    0.000000
    0.494520    0.080086    0.080086    0.080086    0.000000   -0.000000    0.000000
    0.520547    0.084651    0.084651    0.084651    0.000000   -0.000000    0.000000
    0.546574    0.089273    0.089273    0.089273    0.000000   -0.000000    0.000000
    0.572602    0.093956    0.093956    0.093956    0.000000   -0.000000    0.000000
    0.598629    0.098701    0.098701    0.098701    0.000000   -0.000000    0.000000
    0.624656    0.103515    0.103515    0.103515    0.000000   -0.000000    0.000000
    0.650684    0.108400    0.108400    0.108400    0.000000   -0.000000    0.000000
    0.676711    0.113361    0.113361    0.113361    0.000000   -0.000000    0.000000
    0.702738    0.118402    0.118402    0.118402    0.000000   -0.000000    0.000000
    0.728766    0.123527    0.123527    0.123527    0.000000   -0.000000    0.000000
    0.754793    0.128741    0.128741    0.128741    0.000000   -0.000000    0.000000
    0.780820    0.134048    0.134048    0.134048    0.000000   -0.000000    0.000000
    0.806848    0.139454    0.139454    0.139454    0.000000   -0.000000    0.000000
    0.832875    0.144964    0.144964    0.144964    0.000000   -0.000000    0.000000
    0.858902    0.150583    0.150583    0.150583    0.000000   -0.000000    0.000000
    0.884930    0.156317    0.156317    0.156317    0.000000   -0.000000    0.000000
    0.910957    0.162172    0.162172    0.162172    0.000000   -0.000000    0.000000
    0.936984    0.168154    0.168154    0.168154    0.000000   -0.000000    0.000000
    0.963012    0.174269    0.174269    0.174269    0.000000   -0.000000    0.000000
    0.989039    0.180525    0.180525    0.180525    0.000000   -0.000000    0.000000
    1.015066    0.186928    0.186928    0.186928    0.000000   -0.000000    0.000000
    1.041094    0.193487    0.193487    0.193487    0.000000   -0.000000    0.000000
    1.067121    0.200209    0.200209    0.200209    0.000000   -0.000000    0.000000
    1.093148    0.207103    0.207103    0.207103    0.000000   -0.000000    0.000000
    1.119176    0.214178    0.214178    0.214178    0.000000   -0.000000    0.000000
    1.145203    0.221443    0.221443    0.221443    0.000000   -0.000000    0.000000
    1.171230    0.228908    0.228908    0.228908    0.000000   -0.000000    0.000000
    1.197258    0.236584    0.236584    0.236584    0.000000   -0.000000    0.000000
    1.223285    0.244483    0.244483    0.244483    0.000000   -0.000000    0.000000
    1.249312    0.252615    0.252615    0.252615    0.000000   -0.000000    0.000000
    1.275340    0.260994    0.260994    0.260994    0.000000   -0.000000    0.000000
    1.301367    0.269634    0.269634    0.269634    0.000000   -0.000000    0.000000
    1.327394    0.278548    0.278548    0.278548    0.000000   -0.000000    0.000000
    1.353422    0.287753    0.287753    0.287753    0.000000   -0.000000    0.000000
    1.379449    0.297265    0.297265    0.297265    0.000000   -0.000000    0.000000
    1.405476    0.307100    0.307100    0.307100    0.000000   -0.000000    0.000000
    1.431504    0.317280    0.317280    0.317280    0.000000   -0.000000    0.000000
    1.457531    0.327823    0.327823    0.327823    0.000000   -0.000000    0.000000
    1.483559    0.338751    0.338751    0.338751    0.000000   -0.000000    0.000000
    1.509586    0.350088    0.350088    0.350088    0.000000   -0.000000    0.000000
    1.535613    0.361858    0.361858    0.361858    0.000000   -0.000000    0.000000
[...]
   25.636932    0.002787    0.002787    0.002787    0.000000   -0.000000    0.000000
   25.662960    0.002778    0.002778    0.002778    0.000000   -0.000000    0.000000
   25.688987    0.002769    0.002769    0.002769    0.000000   -0.000000    0.000000
   25.715014    0.002760    0.002760    0.002760    0.000000   -0.000000    0.000000
   25.741042    0.002751    0.002751    0.002751    0.000000   -0.000000    0.000000
   25.767069    0.002742    0.002742    0.002742    0.000000   -0.000000    0.000000
   25.793096    0.002734    0.002734    0.002734    0.000000   -0.000000    0.000000
   25.819124    0.002725    0.002725    0.002725    0.000000   -0.000000    0.000000
   25.845151    0.002716    0.002716    0.002716    0.000000   -0.000000    0.000000
   25.871178    0.002707    0.002707    0.002707    0.000000   -0.000000    0.000000
   25.897206    0.002699    0.002699    0.002699    0.000000   -0.000000    0.000000
   25.923233    0.002690    0.002690    0.002690    0.000000   -0.000000    0.000000
   25.949260    0.002681    0.002681    0.002681    0.000000   -0.000000    0.000000
   25.975288    0.002673    0.002673    0.002673    0.000000   -0.000000    0.000000
   26.001315    0.002664    0.002664    0.002664    0.000000   -0.000000    0.000000

  frequency dependent      REAL DIELECTRIC FUNCTION (independent particle, no local field effects)
     E(ev)      X         Y         Z        XY        YZ        ZX
    0.000000   12.658606   12.658606   12.658606    0.000000   -0.000000    0.000000
    0.026027   12.659136   12.659136   12.659136    0.000000   -0.000000    0.000000
    0.052055   12.660718   12.660718   12.660718    0.000000   -0.000000    0.000000
    0.078082   12.663353   12.663353   12.663353    0.000000   -0.000000    0.000000
    0.104109   12.667044   12.667044   12.667044    0.000000   -0.000000    0.000000
    0.130137   12.671792   12.671792   12.671792    0.000000   -0.000000    0.000000
    0.156164   12.677604   12.677604   12.677604    0.000000   -0.000000    0.000000
    0.182191   12.684481   12.684481   12.684481    0.000000   -0.000000    0.000000
    0.208219   12.692420   12.692420   12.692420    0.000000   -0.000000    0.000000
    0.234246   12.701437   12.701437   12.701437    0.000000   -0.000000    0.000000
    0.260273   12.711539   12.711539   12.711539    0.000000   -0.000000    0.000000
    0.286301   12.722726   12.722726   12.722726    0.000000   -0.000000    0.000000
    0.312328   12.735003   12.735003   12.735003    0.000000   -0.000000    0.000000
    0.338355   12.748377   12.748377   12.748377    0.000000   -0.000000    0.000000
    0.364383   12.762867   12.762867   12.762867    0.000000   -0.000000    0.000000
    0.390410   12.778473   12.778473   12.778473    0.000000   -0.000000    0.000000
    0.416437   12.795203   12.795203   12.795203    0.000000   -0.000000    0.000000
    0.442465   12.813081   12.813081   12.813081    0.000000   -0.000000    0.000000
    0.468492   12.832109   12.832109   12.832109    0.000000   -0.000000    0.000000
    0.494520   12.852300   12.852300   12.852300    0.000000   -0.000000    0.000000
    0.520547   12.873660   12.873660   12.873660    0.000000   -0.000000    0.000000
    0.546574   12.896224   12.896224   12.896224    0.000000   -0.000000    0.000000
    0.572602   12.919991   12.919991   12.919991    0.000000   -0.000000    0.000000
    0.598629   12.944978   12.944978   12.944978    0.000000   -0.000000    0.000000
    0.624656   12.971206   12.971206   12.971206    0.000000   -0.000000    0.000000
    0.650684   12.998683   12.998683   12.998683    0.000000   -0.000000    0.000000
    0.676711   13.027442   13.027442   13.027442    0.000000   -0.000000    0.000000
    0.702738   13.057497   13.057497   13.057497    0.000000   -0.000000    0.000000
    0.728766   13.088865   13.088865   13.088865    0.000000   -0.000000    0.000000
    0.754793   13.121577   13.121577   13.121577    0.000000   -0.000000    0.000000
    0.780820   13.155651   13.155651   13.155651    0.000000   -0.000000    0.000000
    0.806848   13.191110   13.191110   13.191110    0.000000   -0.000000    0.000000
    0.832875   13.227983   13.227983   13.227983    0.000000   -0.000000    0.000000
    0.858902   13.266299   13.266299   13.266299    0.000000   -0.000000    0.000000
    0.884930   13.306085   13.306085   13.306085    0.000000   -0.000000    0.000000
    0.910957   13.347368   13.347368   13.347368    0.000000   -0.000000    0.000000
    0.936984   13.390189   13.390189   13.390189    0.000000   -0.000000    0.000000
    0.963012   13.434570   13.434570   13.434570    0.000000   -0.000000    0.000000
    0.989039   13.480559   13.480559   13.480559    0.000000   -0.000000    0.000000
    1.015066   13.528173   13.528173   13.528173    0.000000   -0.000000    0.000000
    1.041094   13.577478   13.577478   13.577478    0.000000   -0.000000    0.000000
    1.067121   13.628492   13.628492   13.628492    0.000000   -0.000000    0.000000
    1.093148   13.681264   13.681264   13.681264    0.000000   -0.000000    0.000000
    1.119176   13.735851   13.735851   13.735851    0.000000   -0.000000    0.000000
    1.145203   13.792281   13.792281   13.792281    0.000000   -0.000000    0.000000
    1.171230   13.850622   13.850622   13.850622    0.000000   -0.000000    0.000000
    1.197258   13.910912   13.910912   13.910912    0.000000   -0.000000    0.000000
    1.223285   13.973224   13.973224   13.973224    0.000000   -0.000000    0.000000
    1.249312   14.037599   14.037599   14.037599    0.000000   -0.000000    0.000000
    1.275340   14.104106   14.104106   14.104106    0.000000   -0.000000    0.000000
    1.301367   14.172811   14.172811   14.172811    0.000000   -0.000000    0.000000
    1.327394   14.243775   14.243775   14.243775    0.000000   -0.000000    0.000000
    1.353422   14.317089   14.317089   14.317089    0.000000   -0.000000    0.000000
    1.379449   14.392813   14.392813   14.392813    0.000000   -0.000000    0.000000
    1.405476   14.471024   14.471024   14.471024    0.000000   -0.000000    0.000000
    1.431504   14.551814   14.551814   14.551814    0.000000   -0.000000    0.000000
    1.457531   14.635278   14.635278   14.635278    0.000000   -0.000000    0.000000
    1.483559   14.721501   14.721501   14.721501    0.000000   -0.000000    0.000000
    1.509586   14.810593   14.810593   14.810593    0.000000   -0.000000    0.000000
    1.535613   14.902661   14.902661   14.902661    0.000000   -0.000000    0.000000
[...]
   25.636932    0.658831    0.658831    0.658831   -0.000000    0.000000   -0.000000
   25.662960    0.659555    0.659555    0.659555   -0.000000    0.000000   -0.000000
   25.688987    0.660277    0.660277    0.660277   -0.000000    0.000000   -0.000000
   25.715014    0.660996    0.660996    0.660996   -0.000000    0.000000   -0.000000
   25.741042    0.661713    0.661713    0.661713   -0.000000    0.000000   -0.000000
   25.767069    0.662428    0.662428    0.662428   -0.000000    0.000000   -0.000000
   25.793096    0.663141    0.663141    0.663141   -0.000000    0.000000   -0.000000
   25.819124    0.663851    0.663851    0.663851   -0.000000    0.000000   -0.000000
   25.845151    0.664559    0.664559    0.664559   -0.000000    0.000000   -0.000000
   25.871178    0.665265    0.665265    0.665265   -0.000000    0.000000   -0.000000
   25.897206    0.665968    0.665968    0.665968   -0.000000    0.000000   -0.000000
   25.923233    0.666670    0.666670    0.666670   -0.000000    0.000000   -0.000000
   25.949260    0.667369    0.667369    0.667369   -0.000000    0.000000   -0.000000
   25.975288    0.668065    0.668065    0.668065   -0.000000    0.000000   -0.000000
   26.001315    0.668760    0.668760    0.668760   -0.000000    0.000000   -0.000000

 The outermost node in the dielectric function lies at epsilon=  15.8

 BZINTS: Fermi energy:  5.758697;  8.000000 electrons
         Band energy:   5.988272;  BLOECHL correction:  0.000000