 vasp.5.4.4.18Apr17-6-g9f103f2a35 (build May 20 2018 16:52:39) complex

 executed on             LinuxIFC date 2022.11.15  16:27:17

 INCAR:
 POTCAR:    PAW W
 POTCAR:    PAW W
   VRHFIN =W: 5p6s5d

   TITEL  = PAW W
   POMASS =  183.850; ZVAL   =    6.000    mass and valenz
   ENMAX  =  223.126; ENMIN  =  167.344 eV
   QCUT   =   -4.050; QGAM   =    8.099    optimization parameters

   Description
     l     E      TYP  RCUT    TYP  RCUT
     2   .000     23  2.500
     2   .000     23  2.500
     0   .000     23  2.500
     0   .000     23  2.500
     1   .200     23  2.750
     1  2.000     23  2.750
     3   .000      7   .000

  PAW W                                 :

 POSCAR: BCC W 5-layers
  positions in direct lattice
 exchange correlation table for  LEXCH =        2
   RHO(1)=    0.500       N(1)  =     2000
   RHO(2)=  100.500       N(2)  =     4000

 ion  position               nearest neighbor table
   1  0.000  0.000  0.000-   2 2.74   2 2.74   2 2.74   2 2.74   3 3.16
   2  0.500  0.500  0.083-   1 2.74   1 2.74   1 2.74   1 2.74   3 2.74   3 2.74   3 2.74   3 2.74
                             4 3.16
   3  0.000  0.000  0.167-   4 2.74   4 2.74   4 2.74   4 2.74   2 2.74   2 2.74   2 2.74   2 2.74
                             5 3.16   1 3.16
   4  0.500  0.500  0.250-   3 2.74   5 2.74   3 2.74   5 2.74   3 2.74   5 2.74   3 2.74   5 2.74
                             2 3.16
   5  0.000  0.000  0.333-   4 2.74   4 2.74   4 2.74   4 2.74   3 3.16

  LATTYP: Found a simple tetragonal cell.
 ALAT       =     3.1600000000
 C/A-ratio  =     6.0000000000

  Lattice vectors:

 A1 = (   3.1600000000,   0.0000000000,   0.0000000000)
 A2 = (   0.0000000000,   3.1600000000,   0.0000000000)
 A3 = (   0.0000000000,   0.0000000000,  18.9600000000)

Analysis of symmetry for initial positions (statically):
 Subroutine PRICEL returns:
 Original cell was already a primitive cell.

 Routine SETGRP: Setting up the symmetry group for a
 simple tetragonal supercell.

 Subroutine GETGRP returns: Found 16 space group operations
 (whereof  8 operations were pure point group operations)
 out of a pool of 16 trial point group operations.

The static configuration has the point symmetry C_4v.
 The point group associated with its full space group is D_4h.

Analysis of symmetry for dynamics (positions and initial velocities):
 Subroutine PRICEL returns:
 Original cell was already a primitive cell.

 Routine SETGRP: Setting up the symmetry group for a
 simple tetragonal supercell.

 Subroutine GETGRP returns: Found 16 space group operations
 (whereof  8 operations were pure point group operations)
 out of a pool of 16 trial point group operations.

The dynamic configuration has the point symmetry C_4v.
 The point group associated with its full space group is D_4h.

 Subroutine INISYM returns: Found 16 space group operations
 (whereof  8 operations are pure point group operations),
 and found     1 'primitive' translations

 KPOINTS: Gamma 20*20*4

Automatic generation of k-mesh.
Space group operators:
 irot       det(A)        alpha          n_x          n_y          n_z        tau_x        tau_y        tau_z
    1     1.000000     0.000000     1.000000     0.000000     0.000000     0.000000     0.000000     0.000000
    2     1.000000    90.000000     0.000000     0.000000    -1.000000     0.000000     0.000000     0.000000
    3     1.000000   180.000000     0.000000     0.000000     1.000000     0.000000     0.000000     0.000000
    4     1.000000    90.000000     0.000000     0.000000     1.000000     0.000000     0.000000     0.000000
    5    -1.000000   179.999999     0.000000     1.000000     0.000000     0.000000     0.000000     0.000000
    6    -1.000000   180.000000     0.707107     0.707107     0.000000     0.000000     0.000000     0.000000
    7    -1.000000   180.000000     1.000000     0.000000     0.000000     0.000000     0.000000     0.000000
    8    -1.000000   180.000000     0.707107    -0.707107     0.000000     0.000000     0.000000     0.000000
    9    -1.000000     0.000000     1.000000     0.000000     0.000000     0.000000     0.000000     0.333333
   10    -1.000000    90.000000     0.000000     0.000000    -1.000000     0.000000     0.000000     0.333333
   11    -1.000000   180.000000     0.000000     0.000000     1.000000     0.000000     0.000000     0.333333
   12    -1.000000    90.000000     0.000000     0.000000     1.000000     0.000000     0.000000     0.333333
   13     1.000000   179.999999     0.000000     1.000000     0.000000     0.000000     0.000000     0.333333
   14     1.000000   180.000000     0.707107     0.707107     0.000000     0.000000     0.000000     0.333333
   15     1.000000   180.000000     1.000000     0.000000     0.000000     0.000000     0.000000     0.333333
   16     1.000000   180.000000     0.707107    -0.707107     0.000000     0.000000     0.000000     0.333333

 Subroutine IBZKPT returns following result:

 Found    198 irreducible k-points:

 Following reciprocal coordinates:
            Coordinates               Weight
  0.000000  0.000000  0.000000      1.000000
  0.050000  0.000000  0.000000      4.000000
  0.100000  0.000000  0.000000      4.000000
  0.150000  0.000000  0.000000      4.000000
  0.200000  0.000000  0.000000      4.000000
  0.250000  0.000000  0.000000      4.000000
  0.300000  0.000000  0.000000      4.000000
  0.350000  0.000000  0.000000      4.000000
  0.400000  0.000000  0.000000      4.000000
  0.450000  0.000000  0.000000      4.000000
  0.500000  0.000000  0.000000      2.000000
  0.050000  0.050000  0.000000      4.000000
  0.100000  0.050000  0.000000      8.000000
  0.150000  0.050000  0.000000      8.000000
  0.200000  0.050000  0.000000      8.000000
  0.250000  0.050000  0.000000      8.000000
  0.300000  0.050000  0.000000      8.000000
  0.350000  0.050000  0.000000      8.000000
  0.400000  0.050000  0.000000      8.000000
  0.450000  0.050000  0.000000      8.000000
  0.500000  0.050000  0.000000      4.000000
  0.100000  0.100000  0.000000      4.000000
  0.150000  0.100000  0.000000      8.000000
  0.200000  0.100000  0.000000      8.000000
  0.250000  0.100000  0.000000      8.000000
  0.300000  0.100000  0.000000      8.000000
  0.350000  0.100000  0.000000      8.000000
  0.400000  0.100000  0.000000      8.000000
  0.450000  0.100000  0.000000      8.000000
  0.500000  0.100000  0.000000      4.000000
  0.150000  0.150000  0.000000      4.000000
  0.200000  0.150000  0.000000      8.000000
  0.250000  0.150000  0.000000      8.000000
  0.300000  0.150000  0.000000      8.000000
  0.350000  0.150000  0.000000      8.000000
  0.400000  0.150000  0.000000      8.000000
  0.450000  0.150000  0.000000      8.000000
  0.500000  0.150000  0.000000      4.000000
  0.200000  0.200000  0.000000      4.000000
  0.250000  0.200000  0.000000      8.000000
  0.300000  0.200000  0.000000      8.000000
  0.350000  0.200000  0.000000      8.000000
  0.400000  0.200000  0.000000      8.000000
  0.450000  0.200000  0.000000      8.000000
  0.500000  0.200000  0.000000      4.000000
  0.250000  0.250000  0.000000      4.000000
  0.300000  0.250000  0.000000      8.000000
  0.350000  0.250000  0.000000      8.000000
  0.400000  0.250000  0.000000      8.000000
  0.450000  0.250000  0.000000      8.000000
  0.500000  0.250000  0.000000      4.000000
  0.300000  0.300000  0.000000      4.000000
  0.350000  0.300000  0.000000      8.000000
  0.400000  0.300000  0.000000      8.000000
  0.450000  0.300000  0.000000      8.000000
  0.500000  0.300000  0.000000      4.000000
  0.350000  0.350000  0.000000      4.000000
  0.400000  0.350000  0.000000      8.000000
  0.450000  0.350000  0.000000      8.000000
  0.500000  0.350000  0.000000      4.000000
[...]
  0.300000  0.300000  0.500000      4.000000
  0.350000  0.300000  0.500000      8.000000
  0.400000  0.300000  0.500000      8.000000
  0.450000  0.300000  0.500000      8.000000
  0.500000  0.300000  0.500000      4.000000
  0.350000  0.350000  0.500000      4.000000
  0.400000  0.350000  0.500000      8.000000
  0.450000  0.350000  0.500000      8.000000
  0.500000  0.350000  0.500000      4.000000
  0.400000  0.400000  0.500000      4.000000
  0.450000  0.400000  0.500000      8.000000
  0.500000  0.400000  0.500000      4.000000
  0.450000  0.450000  0.500000      4.000000
  0.500000  0.450000  0.500000      4.000000
  0.500000  0.500000  0.500000      1.000000

 Following cartesian coordinates:
            Coordinates               Weight
  0.000000  0.000000  0.000000      1.000000
  0.050000  0.000000  0.000000      4.000000
  0.100000  0.000000  0.000000      4.000000
  0.150000  0.000000  0.000000      4.000000
  0.200000  0.000000  0.000000      4.000000
  0.250000  0.000000  0.000000      4.000000
  0.300000  0.000000  0.000000      4.000000
  0.350000  0.000000  0.000000      4.000000
  0.400000  0.000000  0.000000      4.000000
  0.450000  0.000000  0.000000      4.000000
  0.500000  0.000000  0.000000      2.000000
  0.050000  0.050000  0.000000      4.000000
  0.100000  0.050000  0.000000      8.000000
  0.150000  0.050000  0.000000      8.000000
  0.200000  0.050000  0.000000      8.000000
  0.250000  0.050000  0.000000      8.000000
  0.300000  0.050000  0.000000      8.000000
  0.350000  0.050000  0.000000      8.000000
  0.400000  0.050000  0.000000      8.000000
  0.450000  0.050000  0.000000      8.000000
  0.500000  0.050000  0.000000      4.000000
  0.100000  0.100000  0.000000      4.000000
  0.150000  0.100000  0.000000      8.000000
  0.200000  0.100000  0.000000      8.000000
  0.250000  0.100000  0.000000      8.000000
  0.300000  0.100000  0.000000      8.000000
  0.350000  0.100000  0.000000      8.000000
  0.400000  0.100000  0.000000      8.000000
  0.450000  0.100000  0.000000      8.000000
  0.500000  0.100000  0.000000      4.000000
  0.150000  0.150000  0.000000      4.000000
  0.200000  0.150000  0.000000      8.000000
  0.250000  0.150000  0.000000      8.000000
  0.300000  0.150000  0.000000      8.000000
  0.350000  0.150000  0.000000      8.000000
  0.400000  0.150000  0.000000      8.000000
  0.450000  0.150000  0.000000      8.000000
  0.500000  0.150000  0.000000      4.000000
  0.200000  0.200000  0.000000      4.000000
  0.250000  0.200000  0.000000      8.000000
  0.300000  0.200000  0.000000      8.000000
  0.350000  0.200000  0.000000      8.000000
  0.400000  0.200000  0.000000      8.000000
  0.450000  0.200000  0.000000      8.000000
  0.500000  0.200000  0.000000      4.000000
  0.250000  0.250000  0.000000      4.000000
  0.300000  0.250000  0.000000      8.000000
  0.350000  0.250000  0.000000      8.000000
  0.400000  0.250000  0.000000      8.000000
  0.450000  0.250000  0.000000      8.000000
  0.500000  0.250000  0.000000      4.000000
  0.300000  0.300000  0.000000      4.000000
  0.350000  0.300000  0.000000      8.000000
  0.400000  0.300000  0.000000      8.000000
  0.450000  0.300000  0.000000      8.000000
  0.500000  0.300000  0.000000      4.000000
  0.350000  0.350000  0.000000      4.000000
  0.400000  0.350000  0.000000      8.000000
  0.450000  0.350000  0.000000      8.000000
[...]
 k-point 11 :   0.5000 0.0000 0.0000  plane waves:    6352
 k-point 12 :   0.0500 0.0500 0.0000  plane waves:    6299
 k-point 13 :   0.1000 0.0500 0.0000  plane waves:    6321
 k-point 14 :   0.1500 0.0500 0.0000  plane waves:    6328
 k-point 15 :   0.2000 0.0500 0.0000  plane waves:    6329
 k-point 16 :   0.2500 0.0500 0.0000  plane waves:    6343
 k-point 17 :   0.3000 0.0500 0.0000  plane waves:    6341
 k-point 18 :   0.3500 0.0500 0.0000  plane waves:    6338
 k-point 19 :   0.4000 0.0500 0.0000  plane waves:    6352
 k-point 20 :   0.4500 0.0500 0.0000  plane waves:    6353
 k-point 21 :   0.5000 0.0500 0.0000  plane waves:    6340
 k-point 22 :   0.1000 0.1000 0.0000  plane waves:    6327
 k-point 23 :   0.1500 0.1000 0.0000  plane waves:    6335
 k-point 24 :   0.2000 0.1000 0.0000  plane waves:    6321
 k-point 25 :   0.2500 0.1000 0.0000  plane waves:    6311
 k-point 26 :   0.3000 0.1000 0.0000  plane waves:    6312
 k-point 27 :   0.3500 0.1000 0.0000  plane waves:    6321
 k-point 28 :   0.4000 0.1000 0.0000  plane waves:    6345
 k-point 29 :   0.4500 0.1000 0.0000  plane waves:    6345
 k-point 30 :   0.5000 0.1000 0.0000  plane waves:    6326
 k-point 31 :   0.1500 0.1500 0.0000  plane waves:    6335
 k-point 32 :   0.2000 0.1500 0.0000  plane waves:    6337
 k-point 33 :   0.2500 0.1500 0.0000  plane waves:    6323
 k-point 34 :   0.3000 0.1500 0.0000  plane waves:    6310
 k-point 35 :   0.3500 0.1500 0.0000  plane waves:    6311
 k-point 36 :   0.4000 0.1500 0.0000  plane waves:    6316
 k-point 37 :   0.4500 0.1500 0.0000  plane waves:    6323
 k-point 38 :   0.5000 0.1500 0.0000  plane waves:    6328
 k-point 39 :   0.2000 0.2000 0.0000  plane waves:    6313
 k-point 40 :   0.2500 0.2000 0.0000  plane waves:    6317
 k-point 41 :   0.3000 0.2000 0.0000  plane waves:    6301
 k-point 42 :   0.3500 0.2000 0.0000  plane waves:    6311
 k-point 43 :   0.4000 0.2000 0.0000  plane waves:    6327
 k-point 44 :   0.4500 0.2000 0.0000  plane waves:    6315
 k-point 45 :   0.5000 0.2000 0.0000  plane waves:    6316
 k-point 46 :   0.2500 0.2500 0.0000  plane waves:    6299
 k-point 47 :   0.3000 0.2500 0.0000  plane waves:    6300
 k-point 48 :   0.3500 0.2500 0.0000  plane waves:    6311
 k-point 49 :   0.4000 0.2500 0.0000  plane waves:    6318
 k-point 50 :   0.4500 0.2500 0.0000  plane waves:    6311
 k-point 51 :   0.5000 0.2500 0.0000  plane waves:    6306
 k-point 52 :   0.3000 0.3000 0.0000  plane waves:    6311
 k-point 53 :   0.3500 0.3000 0.0000  plane waves:    6300
 k-point 54 :   0.4000 0.3000 0.0000  plane waves:    6291
 k-point 55 :   0.4500 0.3000 0.0000  plane waves:    6306
 k-point 56 :   0.5000 0.3000 0.0000  plane waves:    6310
 k-point 57 :   0.3500 0.3500 0.0000  plane waves:    6287
 k-point 58 :   0.4000 0.3500 0.0000  plane waves:    6291
 k-point 59 :   0.4500 0.3500 0.0000  plane waves:    6290
 k-point 60 :   0.5000 0.3500 0.0000  plane waves:    6290
[...]
 k-point 85 :   0.4000 0.0500 0.2500  plane waves:    6343
 k-point 86 :   0.4500 0.0500 0.2500  plane waves:    6349
 k-point 87 :   0.5000 0.0500 0.2500  plane waves:    6354
 k-point 88 :   0.1000 0.1000 0.2500  plane waves:    6334
 k-point 89 :   0.1500 0.1000 0.2500  plane waves:    6337
 k-point 90 :   0.2000 0.1000 0.2500  plane waves:    6331
 k-point 91 :   0.2500 0.1000 0.2500  plane waves:    6322
 k-point 92 :   0.3000 0.1000 0.2500  plane waves:    6328
 k-point 93 :   0.3500 0.1000 0.2500  plane waves:    6321
 k-point 94 :   0.4000 0.1000 0.2500  plane waves:    6329
 k-point 95 :   0.4500 0.1000 0.2500  plane waves:    6342
 k-point 96 :   0.5000 0.1000 0.2500  plane waves:    6332
 k-point 97 :   0.1500 0.1500 0.2500  plane waves:    6336
 k-point 98 :   0.2000 0.1500 0.2500  plane waves:    6331
 k-point 99 :   0.2500 0.1500 0.2500  plane waves:    6325
 k-point ** :   0.3000 0.1500 0.2500  plane waves:    6323
 k-point ** :   0.3500 0.1500 0.2500  plane waves:    6315
 k-point ** :   0.4000 0.1500 0.2500  plane waves:    6321
 k-point ** :   0.4500 0.1500 0.2500  plane waves:    6316
 k-point ** :   0.5000 0.1500 0.2500  plane waves:    6316
 k-point ** :   0.2000 0.2000 0.2500  plane waves:    6319
 k-point ** :   0.2500 0.2000 0.2500  plane waves:    6312
 k-point ** :   0.3000 0.2000 0.2500  plane waves:    6311
 k-point ** :   0.3500 0.2000 0.2500  plane waves:    6311
 k-point ** :   0.4000 0.2000 0.2500  plane waves:    6308
 k-point ** :   0.4500 0.2000 0.2500  plane waves:    6316
 k-point ** :   0.5000 0.2000 0.2500  plane waves:    6312
 k-point ** :   0.2500 0.2500 0.2500  plane waves:    6307
 k-point ** :   0.3000 0.2500 0.2500  plane waves:    6298
 k-point ** :   0.3500 0.2500 0.2500  plane waves:    6306
 k-point ** :   0.4000 0.2500 0.2500  plane waves:    6311
 k-point ** :   0.4500 0.2500 0.2500  plane waves:    6315
 k-point ** :   0.5000 0.2500 0.2500  plane waves:    6320
 k-point ** :   0.3000 0.3000 0.2500  plane waves:    6285
 k-point ** :   0.3500 0.3000 0.2500  plane waves:    6296
 k-point ** :   0.4000 0.3000 0.2500  plane waves:    6291
 k-point ** :   0.4500 0.3000 0.2500  plane waves:    6292
 k-point ** :   0.5000 0.3000 0.2500  plane waves:    6296
 k-point ** :   0.3500 0.3500 0.2500  plane waves:    6293
 k-point ** :   0.4000 0.3500 0.2500  plane waves:    6289
 k-point ** :   0.4500 0.3500 0.2500  plane waves:    6297
 k-point ** :   0.5000 0.3500 0.2500  plane waves:    6304
 k-point ** :   0.4000 0.4000 0.2500  plane waves:    6302
 k-point ** :   0.4500 0.4000 0.2500  plane waves:    6300
 k-point ** :   0.5000 0.4000 0.2500  plane waves:    6300
 k-point ** :   0.4500 0.4500 0.2500  plane waves:    6294
 k-point ** :   0.5000 0.4500 0.2500  plane waves:    6288
 k-point ** :   0.5000 0.5000 0.2500  plane waves:    6280
 k-point ** :   0.0000 0.0000 0.5000  plane waves:    6268
 k-point ** :   0.0500 0.0000 0.5000  plane waves:    6290
 k-point ** :   0.1000 0.0000 0.5000  plane waves:    6306
 k-point ** :   0.1500 0.0000 0.5000  plane waves:    6328
 k-point ** :   0.2000 0.0000 0.5000  plane waves:    6350
 k-point ** :   0.2500 0.0000 0.5000  plane waves:    6326
 k-point ** :   0.3000 0.0000 0.5000  plane waves:    6346
 k-point ** :   0.3500 0.0000 0.5000  plane waves:    6352
 k-point ** :   0.4000 0.0000 0.5000  plane waves:    6346
 k-point ** :   0.4500 0.0000 0.5000  plane waves:    6338
 k-point ** :   0.5000 0.0000 0.5000  plane waves:    6376
 k-point ** :   0.0500 0.0500 0.5000  plane waves:    6304
 k-point ** :   0.1000 0.0500 0.5000  plane waves:    6314
 k-point ** :   0.1500 0.0500 0.5000  plane waves:    6330
 k-point ** :   0.2000 0.0500 0.5000  plane waves:    6330
 k-point ** :   0.2500 0.0500 0.5000  plane waves:    6326
 k-point ** :   0.3000 0.0500 0.5000  plane waves:    6330
 k-point ** :   0.3500 0.0500 0.5000  plane waves:    6338
 k-point ** :   0.4000 0.0500 0.5000  plane waves:    6338
 k-point ** :   0.4500 0.0500 0.5000  plane waves:    6336
 k-point ** :   0.5000 0.0500 0.5000  plane waves:    6368
 k-point ** :   0.1000 0.1000 0.5000  plane waves:    6324
 k-point ** :   0.1500 0.1000 0.5000  plane waves:    6338
 k-point ** :   0.2000 0.1000 0.5000  plane waves:    6336
 k-point ** :   0.2500 0.1000 0.5000  plane waves:    6322
 k-point ** :   0.3000 0.1000 0.5000  plane waves:    6326
 k-point ** :   0.3500 0.1000 0.5000  plane waves:    6334
[...]
 k-point ** :   0.3000 0.3000 0.5000  plane waves:    6280
 k-point ** :   0.3500 0.3000 0.5000  plane waves:    6288
 k-point ** :   0.4000 0.3000 0.5000  plane waves:    6298
 k-point ** :   0.4500 0.3000 0.5000  plane waves:    6292
 k-point ** :   0.5000 0.3000 0.5000  plane waves:    6300
 k-point ** :   0.3500 0.3500 0.5000  plane waves:    6278
 k-point ** :   0.4000 0.3500 0.5000  plane waves:    6288
 k-point ** :   0.4500 0.3500 0.5000  plane waves:    6308
 k-point ** :   0.5000 0.3500 0.5000  plane waves:    6300
 k-point ** :   0.4000 0.4000 0.5000  plane waves:    6298
 k-point ** :   0.4500 0.4000 0.5000  plane waves:    6314
 k-point ** :   0.5000 0.4000 0.5000  plane waves:    6300
 k-point ** :   0.4500 0.4500 0.5000  plane waves:    6306
 k-point ** :   0.5000 0.4500 0.5000  plane waves:    6312
 k-point ** :   0.5000 0.5000 0.5000  plane waves:    6288

 maximum and minimum number of plane-waves per node :      6376     6268

 maximum number of plane-waves:      6376
 maximum index in each direction:
   IXMAX=    6   IYMAX=    6   IZMAX=   37
   IXMIN=   -6   IYMIN=   -6   IZMIN=  -38

 serial   3D FFT for wavefunctions
 parallel 3D FFT for charge:
    minimum data exchange during FFTs selected (reduces bandwidth)

 initial charge density was supplied:
 number of electron      30.0000001 magnetization
 keeping initial charge density in first step

 Maximum index for augmentation-charges        13949 (set IRDMAX)

 First call to EWALD:  gamma=   0.309
 Maximum number of real-space cells 5x 5x 1
 Maximum number of reciprocal cells 2x 2x 8

--------------------------------------- Iteration      1(   1)  ---------------------------------------

 BZINTS: Fermi energy: 11.060929; 30.000000 electrons
         Band energy: 135.012869;  BLOECHL correction: -0.149639

 eigenvalue-minimisations  :  7524
 total energy-change (2. order) : 0.1349584E+03  (-0.1223961E+04)
 number of electron      30.0000001 magnetization
 augmentation part       30.0000001 magnetization

 Free energy of the ion-electron system (eV)
  alpha Z        PSCENC =        92.17273665
  Ewald energy   TEWEN  =      3037.32980781
  -Hartree energ DENC   =     -4208.03515457
  -exchange      EXHF   =         0.00000000
  -V(xc)+E(xc)   XCENC  =      -236.30637207
  PAW double counting   =      1120.75258868     -838.65035193
  entropy T*S    EENTRO =         0.00000000
  eigenvalues    EBANDS =       135.01286893
  atomic energy  EATOM  =      1032.68232307
  Solvation  Ediel_sol  =         0.00000000
  free energy    TOTEN  =       134.95844657 eV

  energy without entropy =      134.95844657  energy(sigma->0) =      134.95844657

[...]

 eigenvalue-minimisations  : 10738
 total energy-change (2. order) :-0.1806242E+03  (-0.1737296E+03)
 number of electron      30.0000001 magnetization
 augmentation part       30.0000001 magnetization

[...]

--------------------------------------- Iteration      1(  10)  ---------------------------------------

 BZINTS: Fermi energy:  0.692199; 30.000000 electrons
         Band energy: -64.872654;  BLOECHL correction: -0.019304

 eigenvalue-minimisations  :  8440
 total energy-change (2. order) :-0.8405241E-06  (-0.6292923E-06)
 number of electron      30.0000001 magnetization
 augmentation part       30.0000001 magnetization

 Free energy of the ion-electron system (eV)
  alpha Z        PSCENC =        92.17273665
  Ewald energy   TEWEN  =      3037.32980781
  -Hartree energ DENC   =     -4208.03515457
  -exchange      EXHF   =         0.00000000
  -V(xc)+E(xc)   XCENC  =      -236.30637207
  PAW double counting   =      1120.75258868     -838.65035193
  entropy T*S    EENTRO =         0.00000000
  eigenvalues    EBANDS =       -64.87265351
  atomic energy  EATOM  =      1032.68232307
  Solvation  Ediel_sol  =         0.00000000
  free energy    TOTEN  =       -64.92707587 eV

  energy without entropy =      -64.92707587  energy(sigma->0) =      -64.92707587

 average (electrostatic) potential at core
  the test charge radii are     1.1823
  (the norm of the test charge is              1.0000)
       1 -45.3056       2 -45.1263       3 -45.3392       4 -45.1266       5 -45.3055

 E-fermi :   0.6922     XC(G=0):  -6.8825     alpha+bet : -6.1607

 k-point     1 :       0.0000    0.0000    0.0000
  band No.  band energies     occupation
      1      -8.0336      2.00000
      2      -6.1476      2.00000
      3      -4.6395      2.00000
      4      -4.5440      2.00000
      5      -4.0172      2.00000
      6      -3.3650      2.00000
      7      -3.3569      2.00000
      8      -1.6524      2.00000
      9      -0.4551      2.00000
     10      -0.4551      2.00000
     11      -0.1112      2.00000
     12      -0.0227      2.00000
     13      -0.0227      2.00000
     14       0.3449      2.00000
     15       0.4047      2.00000
     16       0.4641      2.00000
     17       0.8258      0.00954
     18       0.8258      0.00000
     19       1.0439      0.00000

[...]

 k-point   198 :       0.5000    0.5000    0.5000
  band No.  band energies     occupation
      1      -4.8034      2.00000
      2      -4.6493      2.00000
      3      -3.2148      2.00000
      4      -2.7827      2.00000
      5      -2.7827      2.00000
      6      -2.5791      2.00000
      7      -2.3505      2.00000
      8      -2.3505      2.00000
      9      -1.7679      2.00000
     10      -1.5403      2.00000
     11      -1.5403      2.00000
     12      -0.1353      2.00000
     13      -0.1353      2.00000
     14       2.4434      0.00000
     15       2.5693      0.00000
     16       2.5693      0.00000
     17       2.6248      0.00000
     18       3.2147      0.00000
     19       3.2182      0.00000

 soft charge-density along one line, spin component           1
         0         1         2         3         4         5         6         7         8         9
 total charge-density along one line

------------------------ aborting loop because EDIFF is reached ----------------------------------------

  FORCE on cell =-STRESS in cart. coord.  units (eV):
  Direction    XX          YY          ZZ          XY          YZ          ZX
  Alpha Z    92.17274    92.17274    92.17274
  Ewald    3997.59375  3997.59375 -4957.85860     0.00000     0.00000     0.00000
  Hartree  4195.89937  4195.89937 -4183.16255    -0.00000    -0.00000    -0.00000
  E(xc)    -132.88523  -132.88523  -131.73314     0.00000    -0.00000     0.00000
  Local   -8511.33027 -8511.33027  8828.32105     0.00000    -0.00000     0.00000
  n-local   -75.41153   -62.77932   -74.30527     3.82778    -0.00017    -0.00003
  augment    26.10402    26.10402    26.15153     0.00000     0.00000     0.00000
  Kinetic   371.09620   404.53956   390.65908     2.41014     0.00009    -0.00002
  Fock        0.00000     0.00000     0.00000     0.00000     0.00000     0.00000
  Total     -13.72318   -13.72318    -9.75516     0.00000    -0.00000     0.00000
  in kB    -116.13229  -116.13229   -82.55289     0.00000    -0.00000     0.00000

 VOLUME and BASIS-vectors are now :
  energy-cutoff  :      600.00
  volume of cell :      189.33
      direct lattice vectors                 reciprocal lattice vectors
     3.160000000  0.000000000  0.000000000     0.316455696  0.000000000  0.000000000
     0.000000000  3.160000000  0.000000000     0.000000000  0.316455696  0.000000000
     0.000000000  0.000000000 18.960000000     0.000000000  0.000000000  0.052742616

  length of vectors
     3.160000000  3.160000000 18.960000000     0.316455696  0.316455696  0.052742616

 FORCES acting on ions
    electron-ion (+dipol)            ewald-force                    non-local-force                 convergence-correction
   -.409E-14 0.169E-14 0.730E+03   0.639E-14 -.114E-14 -.723E+03   0.000E+00 0.000E+00 -.456E+01   -.335E-13 0.396E-13 -.780E-01
   -.316E-15 -.217E-13 0.382E+03   0.205E-14 -.219E-14 -.383E+03   0.000E+00 0.000E+00 -.433E-01   0.171E-13 0.352E-15 -.754E-01
   -.588E-14 0.288E-14 -.210E-07   0.496E-14 -.218E-14 -.106E-08   0.000E+00 0.000E+00 -.678E-20   0.265E-14 -.423E-15 -.120E-02
   -.465E-15 0.997E-15 -.382E+03   0.293E-14 -.181E-14 0.383E+03   0.000E+00 0.000E+00 0.433E-01   -.433E-13 0.964E-14 0.760E-01
   -.650E-14 0.395E-14 -.730E+03   0.522E-15 -.247E-14 0.723E+03   0.000E+00 0.000E+00 0.456E+01   0.186E-13 -.124E-14 0.796E-01
   -.173E-13 -.121E-13 -.212E-07   0.169E-13 -.980E-14 0.000E+00   0.000E+00 0.000E+00 -.888E-15   -.384E-13 0.480E-13 0.102E-02

 POSITION                                       TOTAL-FORCE (eV/Angst)
      0.00000      0.00000      0.00000         0.000000      0.000000      2.359461
      1.58000      1.58000      1.58000         0.000000      0.000000     -1.601010
      0.00000      0.00000      3.16000         0.000000      0.000000     -0.000000
      1.58000      1.58000      4.74000         0.000000      0.000000      1.601010
      0.00000      0.00000      6.32000        -0.000000      0.000000     -2.359461
    total drift:                               -0.000000      0.000000      0.001016

  FREE ENERGIE OF THE ION-ELECTRON SYSTEM (eV)
  free  energy   TOTEN  =       -64.92707587 eV

  energy  without entropy=      -64.92707587  energy(sigma->0) =      -64.92707587

 writing wavefunctions
 BZINTS: Fermi energy:  0.692199; 30.000000 electrons
         Band energy: -64.872654;  BLOECHL correction: -0.019304