 vasp.5.4.4.18Apr17-6-g9f103f2a35 (build May 20 2018 16:52:39) complex

 executed on             LinuxIFC date 2022.11.04  18:17:53

 INCAR:
 POTCAR:   PAW_PBE Si 05Jan2001
 POTCAR:   PAW_PBE Si 05Jan2001
   VRHFIN =Si: s2p2

   TITEL  = PAW_PBE Si 05Jan2001
   POMASS =   28.085; ZVAL   =    4.000    mass and valenz
   ENMAX  =  245.345; ENMIN  =  184.009 eV
   QCUT   =   -4.246; QGAM   =    8.493    optimization parameters

   Description
     l     E      TYP  RCUT    TYP  RCUT
     0   .000     23  1.900
     0   .000     23  1.900
     1   .000     23  1.900
     1   .000     23  1.900
     2   .000      7  1.900

 PAW_PBE Si 05Jan2001                   :

 POSCAR: primitive Si
  positions in direct lattice
 exchange correlation table for  LEXCH =        8
   RHO(1)=    0.500       N(1)  =     2000
   RHO(2)=  100.500       N(2)  =     4000

 ion  position               nearest neighbor table
   1  0.000  0.000  0.000-   2 2.35   2 2.35   2 2.35   2 2.35
   2  0.250  0.250  0.250-   1 2.35   1 2.35   1 2.35   1 2.35

  LATTYP: Found a face centered cubic cell.
 ALAT       =     5.4300000000

  Lattice vectors:

 A1 = (   0.0000000000,   2.7150000000,   2.7150000000)
 A2 = (   2.7150000000,   0.0000000000,   2.7150000000)
 A3 = (   2.7150000000,   2.7150000000,   0.0000000000)

Analysis of symmetry for initial positions (statically):
 Subroutine PRICEL returns:
 Original cell was already a primitive cell.

 Routine SETGRP: Setting up the symmetry group for a
 face centered cubic supercell.

 Subroutine GETGRP returns: Found 48 space group operations
 (whereof 24 operations were pure point group operations)
 out of a pool of 48 trial point group operations.

The static configuration has the point symmetry T_d .
 The point group associated with its full space group is O_h .

Analysis of symmetry for dynamics (positions and initial velocities):
 Subroutine PRICEL returns:
 Original cell was already a primitive cell.

 Routine SETGRP: Setting up the symmetry group for a
 face centered cubic supercell.

 Subroutine GETGRP returns: Found 48 space group operations
 (whereof 24 operations were pure point group operations)
 out of a pool of 48 trial point group operations.

The dynamic configuration has the point symmetry T_d .
 The point group associated with its full space group is O_h .

 Subroutine INISYM returns: Found 48 space group operations
 (whereof 24 operations are pure point group operations),
 and found     1 'primitive' translations

 KPOINTS: 20*20*20

Automatic generation of k-mesh.
Space group operators:
 irot       det(A)        alpha          n_x          n_y          n_z        tau_x        tau_y        tau_z
    1     1.000000     0.000001     1.000000     0.000000     0.000000     0.000000     0.000000     0.000000
    2     1.000000   120.000000    -0.577350    -0.577350    -0.577350     0.000000     0.000000     0.000000
    3     1.000000   120.000000     0.577350     0.577350     0.577350     0.000000     0.000000     0.000000
    4    -1.000000    90.000000     0.000000     0.000000    -1.000000     0.000000     0.000000     0.000000
    5    -1.000000   180.000000     0.000000     0.707107     0.707107     0.000000     0.000000     0.000000
    6    -1.000000    90.000000     0.000000     1.000000     0.000000     0.000000     0.000000     0.000000
    7     1.000000   180.000000     0.000000     0.000000     1.000000     0.000000     0.000000     0.000000
    8     1.000000   120.000000    -0.577350     0.577350     0.577350     0.000000     0.000000     0.000000
    9     1.000000   120.000000    -0.577350     0.577350    -0.577350     0.000000     0.000000     0.000000
   10    -1.000000    90.000000     0.000000     0.000000     1.000000     0.000000     0.000000     0.000000
   11    -1.000000    90.000000    -1.000000     0.000000     0.000000     0.000000     0.000000     0.000000
   12    -1.000000   180.000000     0.707107     0.000000     0.707107     0.000000     0.000000     0.000000
   13     1.000000   120.000000     0.577350    -0.577350     0.577350     0.000000     0.000000     0.000000
   14     1.000000   120.000000    -0.577350    -0.577350     0.577350     0.000000     0.000000     0.000000
   15     1.000000   180.000000     1.000000     0.000000     0.000000     0.000000     0.000000     0.000000
   16    -1.000000    90.000000     0.000000    -1.000000     0.000000     0.000000     0.000000     0.000000
   17    -1.000000   180.000000     0.707107     0.707107     0.000000     0.000000     0.000000     0.000000
   18    -1.000000    90.000000     1.000000     0.000000     0.000000     0.000000     0.000000     0.000000
   19     1.000000   120.000000     0.577350    -0.577350    -0.577350     0.000000     0.000000     0.000000
   20     1.000000   180.000000     0.000000     1.000000     0.000000     0.000000     0.000000     0.000000
   21     1.000000   120.000000     0.577350     0.577350    -0.577350     0.000000     0.000000     0.000000
   22    -1.000000   180.000000     0.000000    -0.707107     0.707107     0.000000     0.000000     0.000000
   23    -1.000000   180.000000     0.707107    -0.707107     0.000000     0.000000     0.000000     0.000000
   24    -1.000000   180.000000     0.707107     0.000000    -0.707107     0.000000     0.000000     0.000000
   25    -1.000000     0.000001     1.000000     0.000000     0.000000     0.250000     0.250000     0.250000
   26    -1.000000   120.000000    -0.577350    -0.577350    -0.577350     0.250000     0.250000     0.250000
   27    -1.000000   120.000000     0.577350     0.577350     0.577350     0.250000     0.250000     0.250000
   28     1.000000    90.000000     0.000000     0.000000    -1.000000     0.250000     0.250000     0.250000
   29     1.000000   180.000000     0.000000     0.707107     0.707107     0.250000     0.250000     0.250000
   30     1.000000    90.000000     0.000000     1.000000     0.000000     0.250000     0.250000     0.250000
   31    -1.000000   180.000000     0.000000     0.000000     1.000000     0.250000     0.250000     0.250000
   32    -1.000000   120.000000    -0.577350     0.577350     0.577350     0.250000     0.250000     0.250000
   33    -1.000000   120.000000    -0.577350     0.577350    -0.577350     0.250000     0.250000     0.250000
   34     1.000000    90.000000     0.000000     0.000000     1.000000     0.250000     0.250000     0.250000
   35     1.000000    90.000000    -1.000000     0.000000     0.000000     0.250000     0.250000     0.250000
   36     1.000000   180.000000     0.707107     0.000000     0.707107     0.250000     0.250000     0.250000
   37    -1.000000   120.000000     0.577350    -0.577350     0.577350     0.250000     0.250000     0.250000
   38    -1.000000   120.000000    -0.577350    -0.577350     0.577350     0.250000     0.250000     0.250000
   39    -1.000000   180.000000     1.000000     0.000000     0.000000     0.250000     0.250000     0.250000
   40     1.000000    90.000000     0.000000    -1.000000     0.000000     0.250000     0.250000     0.250000
   41     1.000000   180.000000     0.707107     0.707107     0.000000     0.250000     0.250000     0.250000
   42     1.000000    90.000000     1.000000     0.000000     0.000000     0.250000     0.250000     0.250000
   43    -1.000000   120.000000     0.577350    -0.577350    -0.577350     0.250000     0.250000     0.250000
   44    -1.000000   180.000000     0.000000     1.000000     0.000000     0.250000     0.250000     0.250000
   45    -1.000000   120.000000     0.577350     0.577350    -0.577350     0.250000     0.250000     0.250000
   46     1.000000   180.000000     0.000000    -0.707107     0.707107     0.250000     0.250000     0.250000
   47     1.000000   180.000000     0.707107    -0.707107     0.000000     0.250000     0.250000     0.250000
   48     1.000000   180.000000     0.707107     0.000000    -0.707107     0.250000     0.250000     0.250000

 Subroutine IBZKPT returns following result:

 Found    256 irreducible k-points:

 Following reciprocal coordinates:
            Coordinates               Weight
  0.000000  0.000000  0.000000      1.000000
  0.050000  0.000000  0.000000      8.000000
  0.100000  0.000000  0.000000      8.000000
  0.150000  0.000000  0.000000      8.000000
  0.200000  0.000000  0.000000      8.000000
  0.250000  0.000000  0.000000      8.000000
  0.300000  0.000000  0.000000      8.000000
  0.350000  0.000000  0.000000      8.000000
  0.400000  0.000000  0.000000      8.000000
  0.450000  0.000000  0.000000      8.000000
  0.500000  0.000000  0.000000      4.000000
  0.050000  0.050000  0.000000      6.000000
  0.100000  0.050000  0.000000     24.000000
  0.150000  0.050000  0.000000     24.000000
  0.200000  0.050000  0.000000     24.000000
  0.250000  0.050000  0.000000     24.000000
  0.300000  0.050000  0.000000     24.000000
  0.350000  0.050000  0.000000     24.000000
  0.400000  0.050000  0.000000     24.000000
  0.450000  0.050000  0.000000     24.000000
  0.500000  0.050000  0.000000     24.000000
 -0.450000  0.050000  0.000000     24.000000
 -0.400000  0.050000  0.000000     24.000000
 -0.350000  0.050000  0.000000     24.000000
 -0.300000  0.050000  0.000000     24.000000
 -0.250000  0.050000  0.000000     24.000000
 -0.200000  0.050000  0.000000     24.000000
 -0.150000  0.050000  0.000000     24.000000
 -0.100000  0.050000  0.000000     24.000000
 -0.050000  0.050000  0.000000     12.000000
  0.100000  0.100000  0.000000      6.000000
  0.150000  0.100000  0.000000     24.000000
  0.200000  0.100000  0.000000     24.000000
  0.250000  0.100000  0.000000     24.000000
  0.300000  0.100000  0.000000     24.000000
  0.350000  0.100000  0.000000     24.000000
  0.400000  0.100000  0.000000     24.000000
  0.450000  0.100000  0.000000     24.000000
  0.500000  0.100000  0.000000     24.000000
 -0.450000  0.100000  0.000000     24.000000
 -0.400000  0.100000  0.000000     24.000000
 -0.350000  0.100000  0.000000     24.000000
 -0.300000  0.100000  0.000000     24.000000
 -0.250000  0.100000  0.000000     24.000000
 -0.200000  0.100000  0.000000     24.000000
 -0.150000  0.100000  0.000000     24.000000
 -0.100000  0.100000  0.000000     12.000000
  0.150000  0.150000  0.000000      6.000000
  0.200000  0.150000  0.000000     24.000000
  0.250000  0.150000  0.000000     24.000000
  0.300000  0.150000  0.000000     24.000000
  0.350000  0.150000  0.000000     24.000000
  0.400000  0.150000  0.000000     24.000000
  0.450000  0.150000  0.000000     24.000000
  0.500000  0.150000  0.000000     24.000000
 -0.450000  0.150000  0.000000     24.000000
 -0.400000  0.150000  0.000000     24.000000
 -0.350000  0.150000  0.000000     24.000000
 -0.300000  0.150000  0.000000     24.000000
 -0.250000  0.150000  0.000000     24.000000
[...]
 -0.350000  0.400000  0.150000     48.000000
 -0.300000  0.400000  0.150000     48.000000
 -0.250000  0.400000  0.150000     24.000000
 -0.400000  0.450000  0.150000     24.000000
 -0.350000  0.450000  0.150000     48.000000
 -0.300000  0.450000  0.150000     24.000000
 -0.350000  0.500000  0.150000     12.000000
 -0.400000  0.400000  0.200000     24.000000
[...]
 k-point  3 :   0.1000 0.0000 0.0000  plane waves:     495
 k-point  4 :   0.1500 0.0000 0.0000  plane waves:     489
 k-point  5 :   0.2000 0.0000 0.0000  plane waves:     483
 k-point  6 :   0.2500 0.0000 0.0000  plane waves:     483
 k-point  7 :   0.3000 0.0000 0.0000  plane waves:     483
 k-point  8 :   0.3500 0.0000 0.0000  plane waves:     477
 k-point  9 :   0.4000 0.0000 0.0000  plane waves:     477
 k-point 10 :   0.4500 0.0000 0.0000  plane waves:     470
 k-point 11 :   0.5000 0.0000 0.0000  plane waves:     476
 k-point 12 :   0.0500 0.0500 0.0000  plane waves:     487
 k-point 13 :   0.1000 0.0500 0.0000  plane waves:     490
 k-point 14 :   0.1500 0.0500 0.0000  plane waves:     485
 k-point 15 :   0.2000 0.0500 0.0000  plane waves:     483
 k-point 16 :   0.2500 0.0500 0.0000  plane waves:     479
 k-point 17 :   0.3000 0.0500 0.0000  plane waves:     482
 k-point 18 :   0.3500 0.0500 0.0000  plane waves:     476
 k-point 19 :   0.4000 0.0500 0.0000  plane waves:     476
 k-point 20 :   0.4500 0.0500 0.0000  plane waves:     471
 k-point 21 :   0.5000 0.0500 0.0000  plane waves:     470
 k-point 22 :  -0.4500 0.0500 0.0000  plane waves:     470
 k-point 23 :  -0.4000 0.0500 0.0000  plane waves:     473
 k-point 24 :  -0.3500 0.0500 0.0000  plane waves:     477
 k-point 25 :  -0.3000 0.0500 0.0000  plane waves:     483
 k-point 26 :  -0.2500 0.0500 0.0000  plane waves:     479
 k-point 27 :  -0.2000 0.0500 0.0000  plane waves:     479
 k-point 28 :  -0.1500 0.0500 0.0000  plane waves:     483
 k-point 29 :  -0.1000 0.0500 0.0000  plane waves:     485
 k-point 30 :  -0.0500 0.0500 0.0000  plane waves:     493
 k-point 31 :   0.1000 0.1000 0.0000  plane waves:     495
 k-point 32 :   0.1500 0.1000 0.0000  plane waves:     485
 k-point 33 :   0.2000 0.1000 0.0000  plane waves:     478
 k-point 34 :   0.2500 0.1000 0.0000  plane waves:     480
 k-point 35 :   0.3000 0.1000 0.0000  plane waves:     482
 k-point 36 :   0.3500 0.1000 0.0000  plane waves:     471
 k-point 37 :   0.4000 0.1000 0.0000  plane waves:     471
 k-point 38 :   0.4500 0.1000 0.0000  plane waves:     470
 k-point 39 :   0.5000 0.1000 0.0000  plane waves:     469
 k-point 40 :  -0.4500 0.1000 0.0000  plane waves:     467
 k-point 41 :  -0.4000 0.1000 0.0000  plane waves:     470
 k-point 42 :  -0.3500 0.1000 0.0000  plane waves:     471
 k-point 43 :  -0.3000 0.1000 0.0000  plane waves:     479
 k-point 44 :  -0.2500 0.1000 0.0000  plane waves:     479
 k-point 45 :  -0.2000 0.1000 0.0000  plane waves:     479
 k-point 46 :  -0.1500 0.1000 0.0000  plane waves:     481
 k-point 47 :  -0.1000 0.1000 0.0000  plane waves:     485
 k-point 48 :   0.1500 0.1500 0.0000  plane waves:     487
 k-point 49 :   0.2000 0.1500 0.0000  plane waves:     480
 k-point 50 :   0.2500 0.1500 0.0000  plane waves:     480
 k-point 51 :   0.3000 0.1500 0.0000  plane waves:     475
 k-point 52 :   0.3500 0.1500 0.0000  plane waves:     476
 k-point 53 :   0.4000 0.1500 0.0000  plane waves:     467
 k-point 54 :   0.4500 0.1500 0.0000  plane waves:     471
 k-point 55 :   0.5000 0.1500 0.0000  plane waves:     468
 k-point 56 :  -0.4500 0.1500 0.0000  plane waves:     467
 k-point 57 :  -0.4000 0.1500 0.0000  plane waves:     470
 k-point 58 :  -0.3500 0.1500 0.0000  plane waves:     471
 k-point 59 :  -0.3000 0.1500 0.0000  plane waves:     469
 k-point 60 :  -0.2500 0.1500 0.0000  plane waves:     477
[...]
 k-point 85 :  -0.3000 0.2500 0.0000  plane waves:     475
 k-point 86 :  -0.2500 0.2500 0.0000  plane waves:     481
 k-point 87 :   0.3000 0.3000 0.0000  plane waves:     476
 k-point 88 :   0.3500 0.3000 0.0000  plane waves:     471
 k-point 89 :   0.4000 0.3000 0.0000  plane waves:     464
 k-point 90 :   0.4500 0.3000 0.0000  plane waves:     466
 k-point 91 :   0.5000 0.3000 0.0000  plane waves:     468
 k-point 92 :  -0.4500 0.3000 0.0000  plane waves:     471
 k-point 93 :  -0.4000 0.3000 0.0000  plane waves:     468
 k-point 94 :  -0.3500 0.3000 0.0000  plane waves:     465
 k-point 95 :  -0.3000 0.3000 0.0000  plane waves:     462
 k-point 96 :   0.3500 0.3500 0.0000  plane waves:     472
 k-point 97 :   0.4000 0.3500 0.0000  plane waves:     467
 k-point 98 :   0.4500 0.3500 0.0000  plane waves:     463
 k-point 99 :   0.5000 0.3500 0.0000  plane waves:     468
 k-point ** :  -0.4500 0.3500 0.0000  plane waves:     473
 k-point ** :  -0.4000 0.3500 0.0000  plane waves:     473
 k-point ** :  -0.3500 0.3500 0.0000  plane waves:     466
 k-point ** :   0.4000 0.4000 0.0000  plane waves:     460
 k-point ** :   0.4500 0.4000 0.0000  plane waves:     462
 k-point ** :   0.5000 0.4000 0.0000  plane waves:     464
 k-point ** :  -0.4500 0.4000 0.0000  plane waves:     467
 k-point ** :  -0.4000 0.4000 0.0000  plane waves:     474
 k-point ** :   0.4500 0.4500 0.0000  plane waves:     468
 k-point ** :   0.5000 0.4500 0.0000  plane waves:     466
 k-point ** :  -0.4500 0.4500 0.0000  plane waves:     464
 k-point ** :   0.5000 0.5000 0.0000  plane waves:     468
 k-point ** :   0.1500 0.1000 0.0500  plane waves:     483
 k-point ** :   0.2000 0.1000 0.0500  plane waves:     485
 k-point ** :   0.2500 0.1000 0.0500  plane waves:     482
 k-point ** :   0.3000 0.1000 0.0500  plane waves:     480
 k-point ** :   0.3500 0.1000 0.0500  plane waves:     476
 k-point ** :   0.4000 0.1000 0.0500  plane waves:     474
 k-point ** :   0.4500 0.1000 0.0500  plane waves:     474
 k-point ** :   0.5000 0.1000 0.0500  plane waves:     470
 k-point ** :  -0.4500 0.1000 0.0500  plane waves:     472
 k-point ** :   0.2000 0.1500 0.0500  plane waves:     481
 k-point ** :   0.2500 0.1500 0.0500  plane waves:     477
 k-point ** :   0.3000 0.1500 0.0500  plane waves:     479
 k-point ** :   0.3500 0.1500 0.0500  plane waves:     476
 k-point ** :   0.4000 0.1500 0.0500  plane waves:     471
 k-point ** :   0.4500 0.1500 0.0500  plane waves:     472
 k-point ** :   0.5000 0.1500 0.0500  plane waves:     467
 k-point ** :  -0.4500 0.1500 0.0500  plane waves:     465
 k-point ** :  -0.4000 0.1500 0.0500  plane waves:     467
 k-point ** :  -0.3500 0.1500 0.0500  plane waves:     470
 k-point ** :  -0.3000 0.1500 0.0500  plane waves:     469
 k-point ** :  -0.2500 0.1500 0.0500  plane waves:     473
 k-point ** :  -0.2000 0.1500 0.0500  plane waves:     473
 k-point ** :  -0.1500 0.1500 0.0500  plane waves:     480
 k-point ** :  -0.1000 0.1500 0.0500  plane waves:     479
 k-point ** :   0.2500 0.2000 0.0500  plane waves:     478
 k-point ** :   0.3000 0.2000 0.0500  plane waves:     479
 k-point ** :   0.3500 0.2000 0.0500  plane waves:     475
 k-point ** :   0.4000 0.2000 0.0500  plane waves:     471
 k-point ** :   0.4500 0.2000 0.0500  plane waves:     468
 k-point ** :   0.5000 0.2000 0.0500  plane waves:     469
 k-point ** :  -0.4500 0.2000 0.0500  plane waves:     468
 k-point ** :  -0.4000 0.2000 0.0500  plane waves:     468
 k-point ** :  -0.3500 0.2000 0.0500  plane waves:     470
 k-point ** :  -0.3000 0.2000 0.0500  plane waves:     471
 k-point ** :  -0.2500 0.2000 0.0500  plane waves:     472
 k-point ** :  -0.2000 0.2000 0.0500  plane waves:     475
 k-point ** :  -0.1500 0.2000 0.0500  plane waves:     480
 k-point ** :   0.3000 0.2500 0.0500  plane waves:     471
 k-point ** :   0.3500 0.2500 0.0500  plane waves:     472
 k-point ** :   0.4000 0.2500 0.0500  plane waves:     468
 k-point ** :   0.4500 0.2500 0.0500  plane waves:     467
 k-point ** :   0.5000 0.2500 0.0500  plane waves:     469
 k-point ** :  -0.4500 0.2500 0.0500  plane waves:     467
 k-point ** :  -0.4000 0.2500 0.0500  plane waves:     469
 k-point ** :  -0.3500 0.2500 0.0500  plane waves:     469
 k-point ** :  -0.3000 0.2500 0.0500  plane waves:     471
 k-point ** :  -0.2500 0.2500 0.0500  plane waves:     478
 k-point ** :  -0.2000 0.2500 0.0500  plane waves:     473
[...]
 k-point ** :  -0.3500 0.4000 0.1500  plane waves:     471
 k-point ** :  -0.3000 0.4000 0.1500  plane waves:     470
 k-point ** :  -0.2500 0.4000 0.1500  plane waves:     471
 k-point ** :  -0.4000 0.4500 0.1500  plane waves:     474
 k-point ** :  -0.3500 0.4500 0.1500  plane waves:     470
 k-point ** :  -0.3000 0.4500 0.1500  plane waves:     472
 k-point ** :  -0.3500 0.5000 0.1500  plane waves:     474
 k-point ** :  -0.4000 0.4000 0.2000  plane waves:     469
 k-point ** :  -0.3500 0.4000 0.2000  plane waves:     471
 k-point ** :  -0.3000 0.4000 0.2000  plane waves:     474
 k-point ** :  -0.3500 0.4500 0.2000  plane waves:     471
 k-point ** :  -0.3000 0.4500 0.2000  plane waves:     471
 k-point ** :  -0.2500 0.4500 0.2000  plane waves:     470
 k-point ** :  -0.3000 0.5000 0.2000  plane waves:     476
 k-point ** :  -0.2500 0.5000 0.2500  plane waves:     464

 maximum and minimum number of plane-waves per node :       495      459

 maximum number of plane-waves:       495
 maximum index in each direction:
   IXMAX=    5   IYMAX=    5   IZMAX=    5
   IXMIN=   -5   IYMIN=   -5   IZMIN=   -5

 serial   3D FFT for wavefunctions
 parallel 3D FFT for charge:
    minimum data exchange during FFTs selected (reduces bandwidth)

 Broyden mixing: mesh for mixing (old mesh)
   NGX = 11   NGY = 11   NGZ = 11
  (NGX  = 32   NGY  = 32   NGZ  = 32)
  gives a total of   1331 points

 initial charge density was supplied:
 charge density of overlapping atoms calculated
 number of electron       8.0000000 magnetization
 keeping initial charge density in first step

 Maximum index for augmentation-charges         3319 (set IRDMAX)

 First call to EWALD:  gamma=   0.518
 Maximum number of real-space cells 3x 3x 3
 Maximum number of reciprocal cells 3x 3x 3

--------------------------------------- Iteration      1(   1)  ---------------------------------------

 BZINTS: Fermi energy:  9.036667;  8.000000 electrons
         Band energy:  15.099820;  BLOECHL correction: -0.155840

 eigenvalue-minimisations  :  4128
 total energy-change (2. order) : 0.1613910E+01  (-0.2447159E+03)
 number of electron       8.0000000 magnetization
 augmentation part        8.0000000 magnetization

 Free energy of the ion-electron system (eV)
  alpha Z        PSCENC =         3.36414203
  Ewald energy   TEWEN  =      -228.56352493
  -Hartree energ DENC   =       -11.00108243
  -exchange      EXHF   =         0.00000000
  -V(xc)+E(xc)   XCENC  =       -18.60181216
  PAW double counting   =        65.95520812      -30.76852678
  entropy T*S    EENTRO =         0.00000000
  eigenvalues    EBANDS =        15.09981999
  atomic energy  EATOM  =       206.12968587
  Solvation  Ediel_sol  =         0.00000000
  free energy    TOTEN  =         1.61390970 eV

  energy without entropy =        1.61390970  energy(sigma->0) =        1.61390970

[...]

 eigenvalue-minimisations  :  6384
 total energy-change (2. order) :-0.1248642E+02  (-0.1214251E+02)
 number of electron       8.0000000 magnetization
 augmentation part        8.0000000 magnetization

[...]

 Broyden mixing:
  rms(total) = 0.30056E+00    rms(broyden)= 0.30055E+00
  rms(prec ) = 0.87206E+00
  weight for this iteration     100.00

[...]

 eigenvalues of (default mixing * dielectric matrix)
  average eigenvalue GAMMA=   2.4319
  2.4319

[...]

 eigenvalue-minimisations  :  4776
 total energy-change (2. order) :-0.2046001E-04  (-0.2923434E-05)
 number of electron       7.9999994 magnetization
 augmentation part       -0.4586135 magnetization

[...]

 Broyden mixing:
  rms(total) = 0.53205E-04    rms(broyden)= 0.53201E-04
  rms(prec ) = 0.10456E-03
  weight for this iteration     100.00

 eigenvalues of (default mixing * dielectric matrix)
  average eigenvalue GAMMA=   2.1334
  3.1967  2.8277  2.5977  2.1689  0.9780  1.0312

[...]

--------------------------------------- Iteration      1(  12)  ---------------------------------------

 BZINTS: Fermi energy:  5.875196;  8.000000 electrons
         Band energy:   6.144507;  BLOECHL correction:  0.000000

 eigenvalue-minimisations  :  3744
 total energy-change (2. order) : 0.4168669E-07  (-0.4633128E-08)
 number of electron       7.9999994 magnetization
 augmentation part       -0.4586276 magnetization

 Free energy of the ion-electron system (eV)
  alpha Z        PSCENC =         3.36414203
  Ewald energy   TEWEN  =      -228.56352493
  -Hartree energ DENC   =       -14.91337755
  -exchange      EXHF   =         0.00000000
  -V(xc)+E(xc)   XCENC  =       -17.96006448
  PAW double counting   =        74.49572550      -39.53539068
  entropy T*S    EENTRO =         0.00000000
  eigenvalues    EBANDS =         6.14450679
  atomic energy  EATOM  =       206.12968587
  Solvation  Ediel_sol  =         0.00000000
  free energy    TOTEN  =       -10.83829746 eV

  energy without entropy =      -10.83829746  energy(sigma->0) =      -10.83829746

 average (electrostatic) potential at core
  the test charge radii are     0.9892
  (the norm of the test charge is              1.0000)
       1 -83.2457       2 -83.2457

 E-fermi :   5.8752     XC(G=0):  -9.4110     alpha+bet :-11.9845

 k-point     1 :       0.0000    0.0000    0.0000
  band No.  band energies     occupation
      1      -6.1306      2.00000
      2       5.8331      2.00000
      3       5.8331      2.00000
      4       5.8331      2.00000
      5       8.4012      0.00000
      6       8.4012      0.00000
      7       8.4012      0.00000
      8       9.2080      0.00000

[...]

 k-point   256 :      -0.2500    0.5000    0.2500
  band No.  band energies     occupation
      1      -1.8205      2.00000
      2      -1.8205      2.00000
      3       1.9795      2.00000
      4       1.9795      2.00000
      5      10.1069      0.00000
      6      10.1070      0.00000
      7      10.8447      0.00000
      8      10.8447      0.00000

 soft charge-density along one line, spin component           1
         0         1         2         3         4         5         6         7         8         9
 total charge-density along one line

------------------------ aborting loop because EDIFF is reached ----------------------------------------

  FORCE on cell =-STRESS in cart. coord.  units (eV):
  Direction    XX          YY          ZZ          XY          YZ          ZX
  Alpha Z     3.36414     3.36414     3.36414
  Ewald     -76.18788   -76.18788   -76.18788     0.00000    -0.00000     0.00000
  Hartree     4.97108     4.97108     4.97108    -0.00000    -0.00000    -0.00000
  E(xc)     -25.37681   -25.37681   -25.37681     0.00001     0.00001     0.00001
  Local     -29.26129   -29.26129   -29.26129     0.00004     0.00004     0.00004
  n-local    78.76594    80.37021    74.54112     2.27692    -1.33757     0.50582
  augment   -11.64729   -11.64729   -11.64729    -0.00004    -0.00004    -0.00004
  Kinetic    59.00059    56.02054    55.11560     3.57258    -0.65856     1.06471
  Fock        0.00000     0.00000     0.00000     0.00000     0.00000     0.00000
  Total       0.46662     0.46662     0.46662     0.00000    -0.00000     0.00000
  in kB      18.67823    18.67823    18.67823     0.00000    -0.00000     0.00000

 VOLUME and BASIS-vectors are now :
  energy-cutoff  :      300.00
  volume of cell :       40.03
      direct lattice vectors                 reciprocal lattice vectors
     0.000000000  2.715000000  2.715000000    -0.184162063  0.184162063  0.184162063
     2.715000000  0.000000000  2.715000000     0.184162063 -0.184162063  0.184162063
     2.715000000  2.715000000  0.000000000     0.184162063  0.184162063 -0.184162063

  length of vectors
     3.839589822  3.839589822  3.839589822     0.318978049  0.318978049  0.318978049

 FORCES acting on ions
    electron-ion (+dipol)            ewald-force                    non-local-force                 convergence-correction
   0.682E-05 0.682E-05 0.682E-05   0.132E-14 -.451E-14 -.305E-14   -.347E-16 -.416E-16 -.382E-16   -.248E-08 -.248E-08 -.248E-08
   -.682E-05 -.682E-05 -.682E-05   -.113E-14 0.493E-14 0.317E-14   0.486E-16 0.694E-16 0.347E-16   0.248E-08 0.248E-08 0.248E-08
   0.383E-14 -.534E-14 -.718E-15   0.187E-15 0.422E-15 0.120E-15   0.139E-16 0.278E-16 -.347E-17   -.127E-14 0.276E-14 0.242E-14

 POSITION                                       TOTAL-FORCE (eV/Angst)
      0.00000      0.00000      0.00000         0.000000      0.000000      0.000000
      1.35750      1.35750      1.35750        -0.000000     -0.000000     -0.000000
    total drift:                                0.000000     -0.000000      0.000000

  FREE ENERGIE OF THE ION-ELECTRON SYSTEM (eV)
  free  energy   TOTEN  =       -10.83829746 eV

  energy  without entropy=      -10.83829746  energy(sigma->0) =      -10.83829746

 writing wavefunctions
 BZINTS: Fermi energy:  5.875196;  8.000000 electrons
         Band energy:   6.144507;  BLOECHL correction:  0.000000