 vasp.5.4.4.18Apr17-6-g9f103f2a35 (build May 20 2018 16:52:39) complex

 executed on             LinuxIFC date 2022.11.17  21:34:41

 INCAR:
 POTCAR:    PAW Nb_pv 09Jan2002

 POTCAR:    PAW Nb_pv 09Jan2002
   VRHFIN =Nb: s1d4

   TITEL  = PAW Nb_pv 09Jan2002
   POMASS =   92.910; ZVAL   =   11.000    mass and valenz
   ENMAX  =  207.263; ENMIN  =  155.447 eV

  PAW Nb_pv 09Jan2002                   :

 POSCAR: sic2 Nb
  positions in direct lattice
 exchange correlation table for  LEXCH =        2
   RHO(1)=    0.500       N(1)  =     2000
   RHO(2)=  100.500       N(2)  =     4000

 ion  position               nearest neighbor table
   1  0.000  0.000  0.000-   2 2.86   2 2.86   2 2.86   2 2.86   2 2.86   2 2.86   2 2.86   2 2.86

   2  0.500  0.500  0.500-   1 2.86   1 2.86   1 2.86   1 2.86   1 2.86   1 2.86   1 2.86   1 2.86

  LATTYP: Found a simple cubic cell.
 ALAT       =     3.3008000000

  Lattice vectors:

 A1 = (   3.3008000000,   0.0000000000,   0.0000000000)
 A2 = (   0.0000000000,   3.3008000000,   0.0000000000)
 A3 = (   0.0000000000,   0.0000000000,   3.3008000000)

Analysis of symmetry for initial positions (statically):
 Subroutine PRICEL returns following result:

  LATTYP: Found a body centered cubic cell.
 ALAT       =     3.3008000000

[...]

   2 primitive cells build up your supercell.

 Routine SETGRP: Setting up the symmetry group for a
 simple cubic supercell.

 Subroutine GETGRP returns: Found 48 space group operations
 (whereof 48 operations were pure point group operations)
 out of a pool of 48 trial point group operations.

The static configuration has the point symmetry O_h .

Analysis of symmetry for dynamics (positions and initial velocities):
 Subroutine PRICEL returns following result:

  LATTYP: Found a body centered cubic cell.
 ALAT       =     3.3008000000

  Lattice vectors:

 A1 = (   1.6504000000,   1.6504000000,   1.6504000000)
 A2 = (   1.6504000000,  -1.6504000000,  -1.6504000000)
 A3 = (  -1.6504000000,   1.6504000000,  -1.6504000000)

   2 primitive cells build up your supercell.

 Routine SETGRP: Setting up the symmetry group for a
 simple cubic supercell.

 Subroutine GETGRP returns: Found 48 space group operations
 (whereof 48 operations were pure point group operations)
 out of a pool of 48 trial point group operations.

The dynamic configuration has the point symmetry O_h .

 Subroutine INISYM returns: Found 48 space group operations
 (whereof 48 operations are pure point group operations),
 and found     2 'primitive' translations

 KPOINTS: 16*16*16

Automatic generation of k-mesh.
Space group operators:
 irot       det(A)        alpha          n_x          n_y          n_z        tau_x        tau_y        tau_z
    1     1.000000     0.000000     1.000000     0.000000     0.000000     0.000000     0.000000     0.000000
    2    -1.000000     0.000000     1.000000     0.000000     0.000000     0.000000     0.000000     0.000000
    3     1.000000   120.000000    -0.577350    -0.577350    -0.577350     0.000000     0.000000     0.000000
    4    -1.000000   120.000000    -0.577350    -0.577350    -0.577350     0.000000     0.000000     0.000000
    5     1.000000   120.000000     0.577350     0.577350     0.577350     0.000000     0.000000     0.000000
    6    -1.000000   120.000000     0.577350     0.577350     0.577350     0.000000     0.000000     0.000000
    7     1.000000    90.000000     0.000000     0.000000    -1.000000     0.000000     0.000000     0.000000
    8    -1.000000    90.000000     0.000000     0.000000    -1.000000     0.000000     0.000000     0.000000
    9     1.000000   180.000000     0.000000     0.707107     0.707107     0.000000     0.000000     0.000000
   10    -1.000000   180.000000     0.000000     0.707107     0.707107     0.000000     0.000000     0.000000
   11     1.000000    90.000000     0.000000     1.000000     0.000000     0.000000     0.000000     0.000000
   12    -1.000000    90.000000     0.000000     1.000000     0.000000     0.000000     0.000000     0.000000
   13     1.000000   180.000000     0.000000     0.000000     1.000000     0.000000     0.000000     0.000000
   14    -1.000000   180.000000     0.000000     0.000000     1.000000     0.000000     0.000000     0.000000
   15     1.000000   120.000000    -0.577350     0.577350     0.577350     0.000000     0.000000     0.000000
   16    -1.000000   120.000000    -0.577350     0.577350     0.577350     0.000000     0.000000     0.000000
   17     1.000000   120.000000    -0.577350     0.577350    -0.577350     0.000000     0.000000     0.000000
   18    -1.000000   120.000000    -0.577350     0.577350    -0.577350     0.000000     0.000000     0.000000
   19     1.000000    90.000000     0.000000     0.000000     1.000000     0.000000     0.000000     0.000000
   20    -1.000000    90.000000     0.000000     0.000000     1.000000     0.000000     0.000000     0.000000
   21     1.000000    90.000000    -1.000000     0.000000     0.000000     0.000000     0.000000     0.000000
   22    -1.000000    90.000000    -1.000000     0.000000     0.000000     0.000000     0.000000     0.000000
   23     1.000000   180.000000     0.707107     0.000000     0.707107     0.000000     0.000000     0.000000
   24    -1.000000   180.000000     0.707107     0.000000     0.707107     0.000000     0.000000     0.000000
   25     1.000000   120.000000     0.577350    -0.577350     0.577350     0.000000     0.000000     0.000000
   26    -1.000000   120.000000     0.577350    -0.577350     0.577350     0.000000     0.000000     0.000000
   27     1.000000   120.000000    -0.577350    -0.577350     0.577350     0.000000     0.000000     0.000000
   28    -1.000000   120.000000    -0.577350    -0.577350     0.577350     0.000000     0.000000     0.000000
   29     1.000000   180.000000     1.000000     0.000000     0.000000     0.000000     0.000000     0.000000
   30    -1.000000   180.000000     1.000000     0.000000     0.000000     0.000000     0.000000     0.000000
   31     1.000000    90.000000     0.000000    -1.000000     0.000000     0.000000     0.000000     0.000000
   32    -1.000000    90.000000     0.000000    -1.000000     0.000000     0.000000     0.000000     0.000000
   33     1.000000   180.000000     0.707107     0.707107     0.000000     0.000000     0.000000     0.000000
   34    -1.000000   180.000000     0.707107     0.707107     0.000000     0.000000     0.000000     0.000000
   35     1.000000    90.000000     1.000000     0.000000     0.000000     0.000000     0.000000     0.000000
   36    -1.000000    90.000000     1.000000     0.000000     0.000000     0.000000     0.000000     0.000000
   37     1.000000   120.000000     0.577350    -0.577350    -0.577350     0.000000     0.000000     0.000000
   38    -1.000000   120.000000     0.577350    -0.577350    -0.577350     0.000000     0.000000     0.000000
   39     1.000000   180.000000     0.000000     1.000000     0.000000     0.000000     0.000000     0.000000
   40    -1.000000   180.000000     0.000000     1.000000     0.000000     0.000000     0.000000     0.000000
   41     1.000000   120.000000     0.577350     0.577350    -0.577350     0.000000     0.000000     0.000000
   42    -1.000000   120.000000     0.577350     0.577350    -0.577350     0.000000     0.000000     0.000000
   43     1.000000   180.000000     0.000000    -0.707107     0.707107     0.000000     0.000000     0.000000
   44    -1.000000   180.000000     0.000000    -0.707107     0.707107     0.000000     0.000000     0.000000
   45     1.000000   180.000000     0.707107    -0.707107     0.000000     0.000000     0.000000     0.000000
   46    -1.000000   180.000000     0.707107    -0.707107     0.000000     0.000000     0.000000     0.000000
   47     1.000000   180.000000     0.707107     0.000000    -0.707107     0.000000     0.000000     0.000000
   48    -1.000000   180.000000     0.707107     0.000000    -0.707107     0.000000     0.000000     0.000000

 Subroutine IBZKPT returns following result:

 Found    120 irreducible k-points:

 Following reciprocal coordinates:
            Coordinates               Weight
  0.031250  0.031250  0.031250      8.000000
  0.093750  0.031250  0.031250     24.000000
  0.156250  0.031250  0.031250     24.000000
  0.218750  0.031250  0.031250     24.000000
  0.281250  0.031250  0.031250     24.000000
  0.343750  0.031250  0.031250     24.000000
  0.406250  0.031250  0.031250     24.000000
  0.468750  0.031250  0.031250     24.000000
  0.093750  0.093750  0.031250     24.000000
  0.156250  0.093750  0.031250     48.000000
  0.218750  0.093750  0.031250     48.000000
  0.281250  0.093750  0.031250     48.000000
  0.343750  0.093750  0.031250     48.000000
  0.406250  0.093750  0.031250     48.000000
  0.468750  0.093750  0.031250     48.000000
  0.156250  0.156250  0.031250     24.000000
  0.218750  0.156250  0.031250     48.000000
  0.281250  0.156250  0.031250     48.000000
  0.343750  0.156250  0.031250     48.000000
  0.406250  0.156250  0.031250     48.000000
  0.468750  0.156250  0.031250     48.000000
  0.218750  0.218750  0.031250     24.000000
  0.281250  0.218750  0.031250     48.000000
  0.343750  0.218750  0.031250     48.000000
  0.406250  0.218750  0.031250     48.000000
  0.468750  0.218750  0.031250     48.000000
  0.281250  0.281250  0.031250     24.000000
  0.343750  0.281250  0.031250     48.000000
  0.406250  0.281250  0.031250     48.000000
  0.468750  0.281250  0.031250     48.000000
  0.343750  0.343750  0.031250     24.000000
  0.406250  0.343750  0.031250     48.000000
  0.468750  0.343750  0.031250     48.000000
  0.406250  0.406250  0.031250     24.000000
  0.468750  0.406250  0.031250     48.000000
  0.468750  0.468750  0.031250     24.000000
  0.093750  0.093750  0.093750      8.000000
  0.156250  0.093750  0.093750     24.000000
  0.218750  0.093750  0.093750     24.000000
  0.281250  0.093750  0.093750     24.000000
  0.343750  0.093750  0.093750     24.000000
  0.406250  0.093750  0.093750     24.000000
  0.468750  0.093750  0.093750     24.000000
  0.156250  0.156250  0.093750     24.000000
  0.218750  0.156250  0.093750     48.000000
  0.281250  0.156250  0.093750     48.000000
  0.343750  0.156250  0.093750     48.000000
  0.406250  0.156250  0.093750     48.000000
  0.468750  0.156250  0.093750     48.000000
  0.218750  0.218750  0.093750     24.000000
  0.281250  0.218750  0.093750     48.000000
  0.343750  0.218750  0.093750     48.000000
  0.406250  0.218750  0.093750     48.000000
  0.468750  0.218750  0.093750     48.000000
  0.281250  0.281250  0.093750     24.000000
  0.343750  0.281250  0.093750     48.000000
  0.406250  0.281250  0.093750     48.000000
  0.468750  0.281250  0.093750     48.000000
  0.343750  0.343750  0.093750     24.000000
  0.406250  0.343750  0.093750     48.000000
[...]
  0.406250  0.343750  0.281250     48.000000
  0.468750  0.343750  0.281250     48.000000
  0.406250  0.406250  0.281250     24.000000
  0.468750  0.406250  0.281250     48.000000
  0.468750  0.468750  0.281250     24.000000
  0.343750  0.343750  0.343750      8.000000
  0.406250  0.343750  0.343750     24.000000
[...]
   0.40625000  0.40625000  0.28125000       0.006
   0.46875000  0.40625000  0.28125000       0.012
   0.46875000  0.46875000  0.28125000       0.006
   0.34375000  0.34375000  0.34375000       0.002
   0.40625000  0.34375000  0.34375000       0.006
   0.46875000  0.34375000  0.34375000       0.006
   0.40625000  0.40625000  0.34375000       0.006
   0.46875000  0.40625000  0.34375000       0.012
   0.46875000  0.46875000  0.34375000       0.006
   0.40625000  0.40625000  0.40625000       0.002
   0.46875000  0.40625000  0.40625000       0.006
   0.46875000  0.46875000  0.40625000       0.006
   0.46875000  0.46875000  0.46875000       0.002

 position of ions in fractional coordinates (direct lattice)
   0.00000000  0.00000000  0.00000000
   0.50000000  0.50000000  0.50000000

 position of ions in cartesian coordinates  (Angst):
   0.00000000  0.00000000  0.00000000
   1.65040000  1.65040000  1.65040000

 k-point  1 :   0.0312 0.0312 0.0312  plane waves:     440
 k-point  2 :   0.0938 0.0312 0.0312  plane waves:     442
 k-point  3 :   0.1563 0.0312 0.0312  plane waves:     436
 k-point  4 :   0.2188 0.0312 0.0312  plane waves:     431
 k-point  5 :   0.2812 0.0312 0.0312  plane waves:     426
 k-point  6 :   0.3438 0.0312 0.0312  plane waves:     428
 k-point  7 :   0.4063 0.0312 0.0312  plane waves:     426
 k-point  8 :   0.4688 0.0312 0.0312  plane waves:     418
 k-point  9 :   0.0938 0.0938 0.0312  plane waves:     435
 k-point 10 :   0.1563 0.0938 0.0312  plane waves:     432
 k-point 11 :   0.2188 0.0938 0.0312  plane waves:     430
 k-point 12 :   0.2812 0.0938 0.0312  plane waves:     428
 k-point 13 :   0.3438 0.0938 0.0312  plane waves:     427
 k-point 14 :   0.4063 0.0938 0.0312  plane waves:     426
 k-point 15 :   0.4688 0.0938 0.0312  plane waves:     429
 k-point 16 :   0.1563 0.1563 0.0312  plane waves:     425
 k-point 17 :   0.2188 0.1563 0.0312  plane waves:     425
 k-point 18 :   0.2812 0.1563 0.0312  plane waves:     428
 k-point 19 :   0.3438 0.1563 0.0312  plane waves:     427
 k-point 20 :   0.4063 0.1563 0.0312  plane waves:     429
 k-point 21 :   0.4688 0.1563 0.0312  plane waves:     429
 k-point 22 :   0.2188 0.2188 0.0312  plane waves:     422
 k-point 23 :   0.2812 0.2188 0.0312  plane waves:     424
 k-point 24 :   0.3438 0.2188 0.0312  plane waves:     424
 k-point 25 :   0.4063 0.2188 0.0312  plane waves:     425
 k-point 26 :   0.4688 0.2188 0.0312  plane waves:     429
 k-point 27 :   0.2812 0.2812 0.0312  plane waves:     422
 k-point 28 :   0.3438 0.2812 0.0312  plane waves:     419
 k-point 29 :   0.4063 0.2812 0.0312  plane waves:     421
 k-point 30 :   0.4688 0.2812 0.0312  plane waves:     424
 k-point 31 :   0.3438 0.3438 0.0312  plane waves:     417
 k-point 32 :   0.4063 0.3438 0.0312  plane waves:     417
 k-point 33 :   0.4688 0.3438 0.0312  plane waves:     420
 k-point 34 :   0.4063 0.4063 0.0312  plane waves:     418
 k-point 35 :   0.4688 0.4063 0.0312  plane waves:     415
 k-point 36 :   0.4688 0.4688 0.0312  plane waves:     417
 k-point 37 :   0.0938 0.0938 0.0938  plane waves:     437
 k-point 38 :   0.1563 0.0938 0.0938  plane waves:     433
 k-point 39 :   0.2188 0.0938 0.0938  plane waves:     429
 k-point 40 :   0.2812 0.0938 0.0938  plane waves:     427
 k-point 41 :   0.3438 0.0938 0.0938  plane waves:     428
 k-point 42 :   0.4063 0.0938 0.0938  plane waves:     427
 k-point 43 :   0.4688 0.0938 0.0938  plane waves:     427
 k-point 44 :   0.1563 0.1563 0.0938  plane waves:     429
 k-point 45 :   0.2188 0.1563 0.0938  plane waves:     429
 k-point 46 :   0.2812 0.1563 0.0938  plane waves:     424
 k-point 47 :   0.3438 0.1563 0.0938  plane waves:     426
 k-point 48 :   0.4063 0.1563 0.0938  plane waves:     424
 k-point 49 :   0.4688 0.1563 0.0938  plane waves:     427
 k-point 50 :   0.2188 0.2188 0.0938  plane waves:     425
 k-point 51 :   0.2812 0.2188 0.0938  plane waves:     422
 k-point 52 :   0.3438 0.2188 0.0938  plane waves:     421
 k-point 53 :   0.4063 0.2188 0.0938  plane waves:     424
 k-point 54 :   0.4688 0.2188 0.0938  plane waves:     426
 k-point 55 :   0.2812 0.2812 0.0938  plane waves:     418
 k-point 56 :   0.3438 0.2812 0.0938  plane waves:     419
 k-point 57 :   0.4063 0.2812 0.0938  plane waves:     423
 k-point 58 :   0.4688 0.2812 0.0938  plane waves:     424
 k-point 59 :   0.3438 0.3438 0.0938  plane waves:     419
 k-point 60 :   0.4063 0.3438 0.0938  plane waves:     420
[...]
 k-point 85 :   0.4688 0.4688 0.1563  plane waves:     419
 k-point 86 :   0.2188 0.2188 0.2188  plane waves:     425
 k-point 87 :   0.2812 0.2188 0.2188  plane waves:     423
 k-point 88 :   0.3438 0.2188 0.2188  plane waves:     424
 k-point 89 :   0.4063 0.2188 0.2188  plane waves:     425
 k-point 90 :   0.4688 0.2188 0.2188  plane waves:     430
 k-point 91 :   0.2812 0.2812 0.2188  plane waves:     426
 k-point 92 :   0.3438 0.2812 0.2188  plane waves:     424
 k-point 93 :   0.4063 0.2812 0.2188  plane waves:     426
 k-point 94 :   0.4688 0.2812 0.2188  plane waves:     425
 k-point 95 :   0.3438 0.3438 0.2188  plane waves:     425
 k-point 96 :   0.4063 0.3438 0.2188  plane waves:     424
 k-point 97 :   0.4688 0.3438 0.2188  plane waves:     421
 k-point 98 :   0.4063 0.4063 0.2188  plane waves:     420
 k-point 99 :   0.4688 0.4063 0.2188  plane waves:     420
 k-point ** :   0.4688 0.4688 0.2188  plane waves:     418
 k-point ** :   0.2812 0.2812 0.2812  plane waves:     422
 k-point ** :   0.3438 0.2812 0.2812  plane waves:     427
 k-point ** :   0.4063 0.2812 0.2812  plane waves:     428
 k-point ** :   0.4688 0.2812 0.2812  plane waves:     428
 k-point ** :   0.3438 0.3438 0.2812  plane waves:     422
 k-point ** :   0.4063 0.3438 0.2812  plane waves:     423
 k-point ** :   0.4688 0.3438 0.2812  plane waves:     426
 k-point ** :   0.4063 0.4063 0.2812  plane waves:     426
 k-point ** :   0.4688 0.4063 0.2812  plane waves:     421
 k-point ** :   0.4688 0.4688 0.2812  plane waves:     420
 k-point ** :   0.3438 0.3438 0.3438  plane waves:     426
 k-point ** :   0.4063 0.3438 0.3438  plane waves:     423
 k-point ** :   0.4688 0.3438 0.3438  plane waves:     424
 k-point ** :   0.4063 0.4063 0.3438  plane waves:     428
 k-point ** :   0.4688 0.4063 0.3438  plane waves:     426
 k-point ** :   0.4688 0.4688 0.3438  plane waves:     428
 k-point ** :   0.4063 0.4063 0.4063  plane waves:     429
 k-point ** :   0.4688 0.4063 0.4063  plane waves:     426
 k-point ** :   0.4688 0.4688 0.4063  plane waves:     432
 k-point ** :   0.4688 0.4688 0.4688  plane waves:     432

 maximum and minimum number of plane-waves per node :       442      415

 maximum number of plane-waves:       442
 maximum index in each direction:
   IXMAX=    4   IYMAX=    4   IZMAX=    4
   IXMIN=   -5   IYMIN=   -5   IZMIN=   -5

 serial   3D FFT for wavefunctions
 parallel 3D FFT for charge:
    minimum data exchange during FFTs selected (reduces bandwidth)

 Broyden mixing: mesh for mixing (old mesh)
   NGX =  9   NGY =  9   NGZ =  9
  (NGX  = 28   NGY  = 28   NGZ  = 28)
  gives a total of    729 points

 initial charge density was supplied:
 charge density of overlapping atoms calculated
 number of electron      22.0000000 magnetization
 keeping initial charge density in first step

 Maximum index for augmentation-charges          341 (set IRDMAX)

 First call to EWALD:  gamma=   0.537
 Maximum number of real-space cells 3x 3x 3
 Maximum number of reciprocal cells 3x 3x 3

--------------------------------------- Iteration      1(   1)  ---------------------------------------

 BZINTS: Fermi energy:  6.900465; 22.000000 electrons
         Band energy:-231.155475;  BLOECHL correction: -0.161849

 eigenvalue-minimisations  : 10160
 total energy-change (2. order) :-0.3518239E+01  (-0.1103072E+04)
 number of electron      22.0000000 magnetization
 augmentation part       22.0000000 magnetization

 Free energy of the ion-electron system (eV)
  alpha Z        PSCENC =       249.60523850
  Ewald energy   TEWEN  =     -1921.02116984
  -Hartree energ DENC   =      -271.93837114
  -exchange      EXHF   =         0.00000000
  -V(xc)+E(xc)   XCENC  =        54.59193041
  PAW double counting   =      1667.18158126    -1643.50825161
  entropy T*S    EENTRO =         0.00000000
  eigenvalues    EBANDS =      -231.15547540
  atomic energy  EATOM  =      2092.72627849
  Solvation  Ediel_sol  =         0.00000000
  free energy    TOTEN  =        -3.51823934 eV

  energy without entropy =       -3.51823934  energy(sigma->0) =       -3.51823934

[...]

 eigenvalue-minimisations  : 16000
 total energy-change (2. order) :-0.6329046E-05  (-0.6347422E-05)
 number of electron      22.0000000 magnetization
 augmentation part       22.0000000 magnetization

[...]

 eigenvalue-minimisations  : 12480
 total energy-change (2. order) : 0.1155058E-09  (-0.8389572E-11)
 number of electron      22.0000103 magnetization
 augmentation part        7.7773164 magnetization

 Broyden mixing:
  rms(total) = 0.25744E+01    rms(broyden)= 0.25743E+01
  rms(prec ) = 0.29636E+01
  weight for this iteration     100.00

[...]

 eigenvalues of (default mixing * dielectric matrix)
  average eigenvalue GAMMA=   1.8112
  1.8112

[...]

 Broyden mixing:
  rms(total) = 0.25174E-03    rms(broyden)= 0.25170E-03
  rms(prec ) = 0.28686E-03
  weight for this iteration     100.00

 eigenvalues of (default mixing * dielectric matrix)
  average eigenvalue GAMMA=   1.9554
  0.9984  1.6150  2.5274  2.3181  2.3181

[...]

--------------------------------------- Iteration      1(  11)  ---------------------------------------

 BZINTS: Fermi energy:  4.839259; 22.000000 electrons
         Band energy:-272.843682;  BLOECHL correction: -0.051826

 eigenvalue-minimisations  : 11480
 total energy-change (2. order) : 0.1425769E-07  (-0.6336117E-08)
 number of electron      22.0000104 magnetization
 augmentation part        8.0600575 magnetization

 Free energy of the ion-electron system (eV)
  alpha Z        PSCENC =       249.60523850
  Ewald energy   TEWEN  =     -1921.02116984
  -Hartree energ DENC   =      -240.24001886
  -exchange      EXHF   =         0.00000000
  -V(xc)+E(xc)   XCENC  =        52.87337562
  PAW double counting   =      2997.95225258    -2981.32387073
  entropy T*S    EENTRO =         0.00000000
  eigenvalues    EBANDS =      -272.84368154
  atomic energy  EATOM  =      2092.72627849
  Solvation  Ediel_sol  =         0.00000000
  free energy    TOTEN  =       -22.27159578 eV

  energy without entropy =      -22.27159578  energy(sigma->0) =      -22.27159578

 average (electrostatic) potential at core
  the test charge radii are     1.2165
  (the norm of the test charge is              1.0000)
       1 -34.9059       2 -34.9059

 E-fermi :   4.8393     XC(G=0): -12.6480     alpha+bet :-12.9149

 k-point     1 :       0.0312    0.0312    0.0312
  band No.  band energies     occupation
      1     -25.6399      2.00000
      2     -25.6399      2.00000
      3     -25.6209      2.00000
      4     -24.7155      2.00000
      5     -24.6939      2.00000
      6     -24.6939      2.00000
      7      -1.0265      2.00000
      8       1.1224      2.00000
      9       1.1224      2.00000
     10       5.1401      0.00000
     11       5.1401      0.00000
     12       5.2370      0.00000
     13       8.0436      0.00000
     14       8.0436      0.00000
     15      10.0800      0.00000
     16      10.3779      0.00000
     17      10.3779      0.00000
     18      14.3104      0.00000
     19      14.3104      0.00000
     20      14.4484      0.00000
     21      20.4452      0.00000
     22      20.5270      0.00000
     23      20.5270      0.00000
     24      23.5469      0.00000
     25      25.8687      0.00000
     26      25.8687      0.00000
     27      30.0937      0.00000
     28      30.0937      0.00000
     29      30.1418      0.00000
     30      33.8888      0.00000
     31      34.7053      0.00000
     32      34.7053      0.00000
     33      40.7044      0.00000
     34      40.9806      0.00000
     35      40.9806      0.00000
     36      41.2110      0.00000
     37      41.6761      0.00000
     38      41.9838      0.00000
     39      41.9838      0.00000
     40      42.2227      0.00000

[...]

 k-point   120 :       0.4688    0.4688    0.4688
  band No.  band energies     occupation
      1     -25.5241      2.00000
      2     -25.4592      2.00000
      3     -25.4592      2.00000
      4     -25.3252      2.00000
      5     -25.3252      2.00000
      6     -25.2586      2.00000
      7       3.4176      2.00000
      8       3.5976      2.00000
      9       3.5976      2.00000
     10       3.8885      2.00000
     11       3.8885      2.00000
     12       3.9883      2.00000
     13       8.8996      0.00000
     14       8.8996      0.00000
     15       8.9002      0.00000
     16       8.9002      0.00000
     17      14.5528      0.00000
     18      14.5726      0.00000
     19      16.3010      0.00000
     20      16.6692      0.00000
     21      16.6692      0.00000
     22      17.4047      0.00000
     23      17.4047      0.00000
     24      17.7937      0.00000
     25      29.4197      0.00000
     26      29.9400      0.00000
     27      29.9400      0.00000
     28      31.2159      0.00000
     29      31.2159      0.00000
     30      31.9725      0.00000
     31      32.9774      0.00000
     32      33.6304      0.00000
     33      33.6304      0.00000
     34      34.5502      0.00000
     35      34.5502      0.00000
     36      34.7723      0.00000
     37      42.0496      0.00000
     38      42.0501      0.00000
     39      47.3158      0.00000
     40      47.3795      0.00000

 soft charge-density along one line, spin component           1
         0         1         2         3         4         5         6         7         8         9
 total charge-density along one line

------------------------ aborting loop because EDIFF is reached ----------------------------------------

  FORCE on cell =-STRESS in cart. coord.  units (eV):
  Direction    XX          YY          ZZ          XY          YZ          ZX
  Alpha Z   249.60524   249.60524   249.60524
  Ewald    -640.34034  -640.34034  -640.34034    -0.00000     0.00000    -0.00000
  Hartree    80.08056    80.08056    80.08056    -0.00000    -0.00000    -0.00000
  E(xc)     -93.76969   -93.76969   -93.76969    -0.00000    -0.00000    -0.00000
  Local     205.55825   205.55825   205.55825    -0.00000     0.00000     0.00000
  n-local   -89.24880   -84.34431   -77.71861     2.26506    -0.97552     0.41220
  augment    52.35014    52.35014    52.35014     0.00000     0.00000    -0.00000
  Kinetic   219.43480   225.01872   241.83425     3.28574    -2.11519     1.21083
  Fock        0.00000     0.00000     0.00000     0.00000     0.00000     0.00000
  Total      -1.52383    -1.52383    -1.52383     0.00000    -0.00000     0.00000
  in kB     -67.88738   -67.88738   -67.88738     0.00000    -0.00000     0.00000

 VOLUME and BASIS-vectors are now :
  energy-cutoff  :      300.00
  volume of cell :       35.96
      direct lattice vectors                 reciprocal lattice vectors
     3.300800000  0.000000000  0.000000000     0.302956859  0.000000000  0.000000000
     0.000000000  3.300800000  0.000000000     0.000000000  0.302956859  0.000000000
     0.000000000  0.000000000  3.300800000     0.000000000  0.000000000  0.302956859

  length of vectors
     3.300800000  3.300800000  3.300800000     0.302956859  0.302956859  0.302956859

 FORCES acting on ions
    electron-ion (+dipol)            ewald-force                    non-local-force                 convergence-correction
   -.154E-13 -.217E-13 -.174E-13   0.268E-14 -.614E-14 -.437E-14   -.242E-26 0.000E+00 0.000E+00   -.593E-14 -.111E-13 -.105E-13
   0.119E-12 0.117E-12 0.124E-12   -.201E-14 0.363E-14 0.345E-14   0.000E+00 0.000E+00 0.000E+00   -.394E-13 -.318E-13 -.325E-13
   0.103E-12 0.954E-13 0.106E-12   0.666E-15 -.251E-14 -.919E-15   -.242E-26 0.000E+00 0.000E+00   -.454E-13 -.429E-13 -.430E-13

 POSITION                                       TOTAL-FORCE (eV/Angst)
      0.00000      0.00000      0.00000         0.000000      0.000000      0.000000
      1.65040      1.65040      1.65040        -0.000000     -0.000000     -0.000000
    total drift:                                0.000000      0.000000      0.000000

  FREE ENERGIE OF THE ION-ELECTRON SYSTEM (eV)
  free  energy   TOTEN  =       -22.27159578 eV

  energy  without entropy=      -22.27159578  energy(sigma->0) =      -22.27159578

 writing wavefunctions
 BZINTS: Fermi energy:  4.839259; 22.000000 electrons
         Band energy:-272.843682;  BLOECHL correction: -0.051826