 vasp.5.4.4.18Apr17-6-g9f103f2a35 (build May 20 2018 16:52:39) complex

 executed on             LinuxIFC date 2022.09.19  17:23:39

 INCAR:
 POTCAR:   PAW_GGA Fe 03Mar1998
 POTCAR:   PAW_GGA Fe 03Mar1998
   VRHFIN =Fe:  d7 s1

   TITEL  = PAW_GGA Fe 03Mar1998
   POMASS =   55.847; ZVAL   =    8.000    mass and valenz
   ENMAX  =  267.907; ENMIN  =  200.930 eV
   QCUT   =   -4.437; QGAM   =    8.875    optimization parameters

   Description
     l     E      TYP  RCUT    TYP  RCUT
     2   .000     23  2.300
     2   .000     23  2.300
     0   .000     23  2.300
     0   .000     23  2.300
     1  -.200     23  2.300
     1   .000     23  2.300
     3   .000      7   .000

 PAW_GGA Fe 03Mar1998                   :

 POSCAR: Fe bulk bcc
  positions in direct lattice
 exchange correlation table for  LEXCH =        7
   RHO(1)=    0.500       N(1)  =     2000
   RHO(2)=  100.500       N(2)  =     4000

 ion  position               nearest neighbor table
   1  0.000  0.000  0.000-

  LATTYP: Found a body centered cubic cell.
 ALAT       =     2.8700000000

  Lattice vectors:

 A1 = (  -1.4350000000,   1.4350000000,   1.4350000000)
 A2 = (   1.4350000000,  -1.4350000000,   1.4350000000)
 A3 = (   1.4350000000,   1.4350000000,  -1.4350000000)

Analysis of symmetry for initial positions (statically):
 Subroutine PRICEL returns:
 Original cell was already a primitive cell.

 Routine SETGRP: Setting up the symmetry group for a
 body centered cubic supercell.

 Subroutine GETGRP returns: Found 48 space group operations
 (whereof 48 operations were pure point group operations)
 out of a pool of 48 trial point group operations.

The static configuration has the point symmetry O_h .

Analysis of symmetry for dynamics (positions and initial velocities):
 Subroutine PRICEL returns:
 Original cell was already a primitive cell.

[...]

The dynamic configuration has the point symmetry O_h .

Analysis of structural, dynamic, and magnetic symmetry:
 Subroutine PRICEL returns:
 Original cell was already a primitive cell.

 Routine SETGRP: Setting up the symmetry group for a
 body centered cubic supercell.

 Subroutine GETGRP returns: Found 48 space group operations
 (whereof 48 operations were pure point group operations)
 out of a pool of 48 trial point group operations.

The magnetic configuration has the point symmetry O_h .

 Subroutine INISYM returns: Found 48 space group operations
 (whereof 48 operations are pure point group operations),
 and found     1 'primitive' translations

 KPOINTS: K-points along high symmetry lines for b
  interpolating k-points between supplied coordinates
  k-points in reciprocal lattice
Space group operators:
 irot       det(A)        alpha          n_x          n_y          n_z        tau_x        tau_y        tau_z
    1     1.000000     0.000000     1.000000     0.000000     0.000000     0.000000     0.000000     0.000000
    2    -1.000000     0.000000     1.000000     0.000000     0.000000     0.000000     0.000000     0.000000
    3     1.000000   120.000000    -0.577350    -0.577350    -0.577350     0.000000     0.000000     0.000000
    4    -1.000000   120.000000    -0.577350    -0.577350    -0.577350     0.000000     0.000000     0.000000
    5     1.000000   120.000000     0.577350     0.577350     0.577350     0.000000     0.000000     0.000000
    6    -1.000000   120.000000     0.577350     0.577350     0.577350     0.000000     0.000000     0.000000
    7     1.000000    90.000000     0.000000     0.000000    -1.000000     0.000000     0.000000     0.000000
    8    -1.000000    90.000000     0.000000     0.000000    -1.000000     0.000000     0.000000     0.000000
    9     1.000000   180.000000     0.000000     0.707107     0.707107     0.000000     0.000000     0.000000
   10    -1.000000   180.000000     0.000000     0.707107     0.707107     0.000000     0.000000     0.000000
   11     1.000000    90.000000     0.000000     1.000000     0.000000     0.000000     0.000000     0.000000
   12    -1.000000    90.000000     0.000000     1.000000     0.000000     0.000000     0.000000     0.000000
   13     1.000000   180.000000     0.000000     0.000000     1.000000     0.000000     0.000000     0.000000
   14    -1.000000   180.000000     0.000000     0.000000     1.000000     0.000000     0.000000     0.000000
   15     1.000000   120.000000    -0.577350     0.577350     0.577350     0.000000     0.000000     0.000000
   16    -1.000000   120.000000    -0.577350     0.577350     0.577350     0.000000     0.000000     0.000000
   17     1.000000   120.000000    -0.577350     0.577350    -0.577350     0.000000     0.000000     0.000000
   18    -1.000000   120.000000    -0.577350     0.577350    -0.577350     0.000000     0.000000     0.000000
   19     1.000000    90.000000     0.000000     0.000000     1.000000     0.000000     0.000000     0.000000
   20    -1.000000    90.000000     0.000000     0.000000     1.000000     0.000000     0.000000     0.000000
   21     1.000000    90.000000    -1.000000     0.000000     0.000000     0.000000     0.000000     0.000000
   22    -1.000000    90.000000    -1.000000     0.000000     0.000000     0.000000     0.000000     0.000000
   23     1.000000   180.000000     0.707107     0.000000     0.707107     0.000000     0.000000     0.000000
   24    -1.000000   180.000000     0.707107     0.000000     0.707107     0.000000     0.000000     0.000000
   25     1.000000   120.000000     0.577350    -0.577350     0.577350     0.000000     0.000000     0.000000
   26    -1.000000   120.000000     0.577350    -0.577350     0.577350     0.000000     0.000000     0.000000
   27     1.000000   120.000000    -0.577350    -0.577350     0.577350     0.000000     0.000000     0.000000
   28    -1.000000   120.000000    -0.577350    -0.577350     0.577350     0.000000     0.000000     0.000000
   29     1.000000   180.000000     1.000000     0.000000     0.000000     0.000000     0.000000     0.000000
   30    -1.000000   180.000000     1.000000     0.000000     0.000000     0.000000     0.000000     0.000000
   31     1.000000    90.000000     0.000000    -1.000000     0.000000     0.000000     0.000000     0.000000
   32    -1.000000    90.000000     0.000000    -1.000000     0.000000     0.000000     0.000000     0.000000
   33     1.000000   180.000000     0.707107     0.707107     0.000000     0.000000     0.000000     0.000000
   34    -1.000000   180.000000     0.707107     0.707107     0.000000     0.000000     0.000000     0.000000
   35     1.000000    90.000000     1.000000     0.000000     0.000000     0.000000     0.000000     0.000000
   36    -1.000000    90.000000     1.000000     0.000000     0.000000     0.000000     0.000000     0.000000
   37     1.000000   120.000000     0.577350    -0.577350    -0.577350     0.000000     0.000000     0.000000
   38    -1.000000   120.000000     0.577350    -0.577350    -0.577350     0.000000     0.000000     0.000000
   39     1.000000   180.000000     0.000000     1.000000     0.000000     0.000000     0.000000     0.000000
   40    -1.000000   180.000000     0.000000     1.000000     0.000000     0.000000     0.000000     0.000000
   41     1.000000   120.000000     0.577350     0.577350    -0.577350     0.000000     0.000000     0.000000
   42    -1.000000   120.000000     0.577350     0.577350    -0.577350     0.000000     0.000000     0.000000
   43     1.000000   180.000000     0.000000    -0.707107     0.707107     0.000000     0.000000     0.000000
   44    -1.000000   180.000000     0.000000    -0.707107     0.707107     0.000000     0.000000     0.000000
   45     1.000000   180.000000     0.707107    -0.707107     0.000000     0.000000     0.000000     0.000000
   46    -1.000000   180.000000     0.707107    -0.707107     0.000000     0.000000     0.000000     0.000000
   47     1.000000   180.000000     0.707107     0.000000    -0.707107     0.000000     0.000000     0.000000
   48    -1.000000   180.000000     0.707107     0.000000    -0.707107     0.000000     0.000000     0.000000

 SYSTEM =  bcc Fe
 POSCAR =  Fe bulk bcc

 Startparameter for this run:
   NWRITE =      2    write-flag & timer
   PREC   = normal    normal or accurate (medium, high low for compatibility)
   ISTART =      0    job   : 0-new  1-cont  2-samecut
   ICHARG =     11    charge: 1-file 2-atom 10-const
   ISPIN  =      2    spin polarized calculation?
   LNONCOLLINEAR =      F non collinear calculations
   LSORBIT =      F    spin-orbit coupling
   INIWAV =      1    electr: 0-lowe 1-rand  2-diag
   LASPH  =      F    aspherical Exc in radial PAW
   METAGGA=      F    non-selfconsistent MetaGGA calc.

 Electronic Relaxation 1
   ENCUT  =  267.9 eV  19.69 Ry    4.44 a.u.   3.32  3.32  3.32*2*pi/ulx,y,z
   ENINI  =  267.9     initial cutoff
   ENAUG  =  511.4 eV  augmentation charge cutoff
   NELM   =     60;   NELMIN=  2; NELMDL= -5     # of ELM steps
   EDIFF  = 0.1E-03   stopping-criterion for ELM
   LREAL  =      F    real-space projection
   NLSPLINE    = F    spline interpolate recip. space projectors
   LCOMPAT=      F    compatible to vasp.4.4
   GGA_COMPAT  = T    GGA compatible to vasp.4.4-vasp.4.6
   LMAXPAW     = -100 max onsite density
   LMAXMIX     =    2 max onsite mixed and CHGCAR
   VOSKOWN=      0    Vosko Wilk Nusair interpolation
   ROPT   =    0.00000
 Ionic relaxation
   EDIFFG = 0.1E-02   stopping-criterion for IOM
   NSW    =      0    number of steps for IOM
   NBLOCK =      1;   KBLOCK =      1    inner block; outer block
   IBRION =     -1    ionic relax: 0-MD 1-quasi-New 2-CG
   NFREE  =      0    steps in history (QN), initial steepest desc. (CG)
   ISIF   =      2    stress and relaxation
   IWAVPR =     10    prediction:  0-non 1-charg 2-wave 3-comb
   ISYM   =      2    0-nonsym 1-usesym 2-fastsym
   LCORR  =      T    Harris-Foulkes like correction to forces

   POTIM  = 0.5000    time-step for ionic-motion
   TEIN   =    0.0    initial temperature
   TEBEG  =    0.0;   TEEND  =   0.0 temperature during run
   SMASS  =  -3.00    Nose mass-parameter (am)
   estimated Nose-frequenzy (Omega)   =  0.10E-29 period in steps =****** mass=  -0.141E-27a.u.
   SCALEE = 1.0000    scale energy and forces
   NPACO  =    256;   APACO  = 16.0  distance and # of slots for P.C.
   PSTRESS=    0.0 pullay stress

  Mass of Ions in am
   POMASS =  55.85
  Ionic Valenz
   ZVAL   =   8.00
  Atomic Wigner-Seitz radii
  virtual crystal weights
   VCA    =   1.00
   NELECT =       8.0000    total number of electrons
   NUPDOWN=      -1.0000    fix difference up-down

 DOS related values:
   EMIN   =  10.00;   EMAX   =-10.00  energy-range for DOS
   EFERMI =   0.00
   ISMEAR =     1;   SIGMA  =   0.20  broadening in eV -4-tet -1-fermi 0-gaus

 Electronic relaxation 2 (details)
   IALGO  =     38    algorithm
   LDIAG  =      T    sub-space diagonalisation (order eigenvalues)
   LSUBROT=      F    optimize rotation matrix (better conditioning)
   TURBO    =      0    0=normal 1=particle mesh
   IRESTART =      0    0=no restart 2=restart with 2 vectors
   NREBOOT  =      0    no. of reboots
   NMIN     =      0    reboot dimension
[...]
   0.50000000  0.36842105  0.50000000       0.010
   0.50000000  0.39473684  0.50000000       0.010
   0.50000000  0.42105263  0.50000000       0.010
   0.50000000  0.44736842  0.50000000       0.010
   0.50000000  0.47368421  0.50000000       0.010
   0.50000000  0.50000000  0.50000000       0.010
[...]
   0.13157895  0.00000000  0.13157895       0.010
   0.15789474  0.00000000  0.15789474       0.010
   0.18421053  0.00000000  0.18421053       0.010
   0.21052632  0.00000000  0.21052632       0.010
   0.23684211  0.00000000  0.23684211       0.010
   0.26315789  0.00000000  0.26315789       0.010
   0.28947368  0.00000000  0.28947368       0.010
   0.31578947  0.00000000  0.31578947       0.010
   0.34210526  0.00000000  0.34210526       0.010
   0.36842105  0.00000000  0.36842105       0.010
   0.39473684  0.00000000  0.39473684       0.010
   0.42105263  0.00000000  0.42105263       0.010
   0.44736842  0.00000000  0.44736842       0.010
   0.47368421  0.00000000  0.47368421       0.010
   0.50000000  0.00000000  0.50000000       0.010

 k-points in reciprocal lattice and weights: K-points along high symmetry lines for b
   0.00000000  0.00000000  0.00000000       0.010
  -0.02631579  0.02631579  0.02631579       0.010
  -0.05263158  0.05263158  0.05263158       0.010
  -0.07894737  0.07894737  0.07894737       0.010
  -0.10526316  0.10526316  0.10526316       0.010
  -0.13157895  0.13157895  0.13157895       0.010
  -0.15789474  0.15789474  0.15789474       0.010
  -0.18421053  0.18421053  0.18421053       0.010
  -0.21052632  0.21052632  0.21052632       0.010
  -0.23684211  0.23684211  0.23684211       0.010
  -0.26315789  0.26315789  0.26315789       0.010
  -0.28947368  0.28947368  0.28947368       0.010
  -0.31578947  0.31578947  0.31578947       0.010
  -0.34210526  0.34210526  0.34210526       0.010
  -0.36842105  0.36842105  0.36842105       0.010
  -0.39473684  0.39473684  0.39473684       0.010
  -0.42105263  0.42105263  0.42105263       0.010
  -0.44736842  0.44736842  0.44736842       0.010
  -0.47368421  0.47368421  0.47368421       0.010
  -0.50000000  0.50000000  0.50000000       0.010
  -0.50000000  0.50000000  0.50000000       0.010
  -0.47368421  0.50000000  0.47368421       0.010
  -0.44736842  0.50000000  0.44736842       0.010
  -0.42105263  0.50000000  0.42105263       0.010
  -0.39473684  0.50000000  0.39473684       0.010
  -0.36842105  0.50000000  0.36842105       0.010
  -0.34210526  0.50000000  0.34210526       0.010
  -0.31578947  0.50000000  0.31578947       0.010
  -0.28947368  0.50000000  0.28947368       0.010
  -0.26315789  0.50000000  0.26315789       0.010
  -0.23684211  0.50000000  0.23684211       0.010
  -0.21052632  0.50000000  0.21052632       0.010
  -0.18421053  0.50000000  0.18421053       0.010
  -0.15789474  0.50000000  0.15789474       0.010
  -0.13157895  0.50000000  0.13157895       0.010
  -0.10526316  0.50000000  0.10526316       0.010
  -0.07894737  0.50000000  0.07894737       0.010
  -0.05263158  0.50000000  0.05263158       0.010
  -0.02631579  0.50000000  0.02631579       0.010
   0.00000000  0.50000000  0.00000000       0.010
   0.00000000  0.50000000  0.00000000       0.010
   0.01315789  0.48684211  0.01315789       0.010
   0.02631579  0.47368421  0.02631579       0.010
   0.03947368  0.46052632  0.03947368       0.010
   0.05263158  0.44736842  0.05263158       0.010
   0.06578947  0.43421053  0.06578947       0.010
   0.07894737  0.42105263  0.07894737       0.010
   0.09210526  0.40789474  0.09210526       0.010
   0.10526316  0.39473684  0.10526316       0.010
   0.11842105  0.38157895  0.11842105       0.010
   0.13157895  0.36842105  0.13157895       0.010
   0.14473684  0.35526316  0.14473684       0.010
   0.15789474  0.34210526  0.15789474       0.010
   0.17105263  0.32894737  0.17105263       0.010
   0.18421053  0.31578947  0.18421053       0.010
   0.19736842  0.30263158  0.19736842       0.010
   0.21052632  0.28947368  0.21052632       0.010
   0.22368421  0.27631579  0.22368421       0.010
   0.23684211  0.26315789  0.23684211       0.010
   0.25000000  0.25000000  0.25000000       0.010
[...]
   0.00000000  0.13157895  0.00000000       0.010
   0.00000000  0.15789474  0.00000000       0.010
   0.00000000  0.18421053  0.00000000       0.010
   0.00000000  0.21052632  0.00000000       0.010
   0.00000000  0.23684211  0.00000000       0.010
   0.00000000  0.26315789  0.00000000       0.010
   0.00000000  0.28947368  0.00000000       0.010
   0.00000000  0.31578947  0.00000000       0.010
   0.00000000  0.34210526  0.00000000       0.010
   0.00000000  0.36842105  0.00000000       0.010
   0.00000000  0.39473684  0.00000000       0.010
   0.00000000  0.42105263  0.00000000       0.010
   0.00000000  0.44736842  0.00000000       0.010
   0.00000000  0.47368421  0.00000000       0.010
   0.00000000  0.50000000  0.00000000       0.010

 position of ions in fractional coordinates (direct lattice)
   0.00000000  0.00000000  0.00000000

 position of ions in cartesian coordinates  (Angst):
   0.00000000  0.00000000  0.00000000

 k-point  1 :   0.0000 0.0000 0.0000  plane waves:     135
 k-point  2 :  -0.0263 0.0263 0.0263  plane waves:     135
 k-point  3 :  -0.0526 0.0526 0.0526  plane waves:     135
 k-point  4 :  -0.0789 0.0789 0.0789  plane waves:     127
 k-point  5 :  -0.1053 0.1053 0.1053  plane waves:     120
 k-point  6 :  -0.1316 0.1316 0.1316  plane waves:     120
 k-point  7 :  -0.1579 0.1579 0.1579  plane waves:     112
 k-point  8 :  -0.1842 0.1842 0.1842  plane waves:     112
 k-point  9 :  -0.2105 0.2105 0.2105  plane waves:     112
 k-point 10 :  -0.2368 0.2368 0.2368  plane waves:     116
 k-point 11 :  -0.2632 0.2632 0.2632  plane waves:     116
 k-point 12 :  -0.2895 0.2895 0.2895  plane waves:     116
 k-point 13 :  -0.3158 0.3158 0.3158  plane waves:     116
 k-point 14 :  -0.3421 0.3421 0.3421  plane waves:     116
 k-point 15 :  -0.3684 0.3684 0.3684  plane waves:     116
 k-point 16 :  -0.3947 0.3947 0.3947  plane waves:     116
 k-point 17 :  -0.4211 0.4211 0.4211  plane waves:     116
 k-point 18 :  -0.4474 0.4474 0.4474  plane waves:     116
 k-point 19 :  -0.4737 0.4737 0.4737  plane waves:     116
 k-point 20 :  -0.5000 0.5000 0.5000  plane waves:     116
 k-point 21 :  -0.5000 0.5000 0.5000  plane waves:     116
 k-point 22 :  -0.4737 0.5000 0.4737  plane waves:     116
 k-point 23 :  -0.4474 0.5000 0.4474  plane waves:     116
 k-point 24 :  -0.4211 0.5000 0.4211  plane waves:     116
 k-point 25 :  -0.3947 0.5000 0.3947  plane waves:     116
 k-point 26 :  -0.3684 0.5000 0.3684  plane waves:     116
 k-point 27 :  -0.3421 0.5000 0.3421  plane waves:     116
 k-point 28 :  -0.3158 0.5000 0.3158  plane waves:     114
 k-point 29 :  -0.2895 0.5000 0.2895  plane waves:     114
 k-point 30 :  -0.2632 0.5000 0.2632  plane waves:     114
 k-point 31 :  -0.2368 0.5000 0.2368  plane waves:     116
 k-point 32 :  -0.2105 0.5000 0.2105  plane waves:     116
 k-point 33 :  -0.1842 0.5000 0.1842  plane waves:     116
 k-point 34 :  -0.1579 0.5000 0.1579  plane waves:     122
 k-point 35 :  -0.1316 0.5000 0.1316  plane waves:     118
 k-point 36 :  -0.1053 0.5000 0.1053  plane waves:     120
 k-point 37 :  -0.0789 0.5000 0.0789  plane waves:     116
 k-point 38 :  -0.0526 0.5000 0.0526  plane waves:     116
 k-point 39 :  -0.0263 0.5000 0.0263  plane waves:     118
 k-point 40 :   0.0000 0.5000 0.0000  plane waves:     118
 k-point 41 :   0.0000 0.5000 0.0000  plane waves:     118
 k-point 42 :   0.0132 0.4868 0.0132  plane waves:     118
 k-point 43 :   0.0263 0.4737 0.0263  plane waves:     118
 k-point 44 :   0.0395 0.4605 0.0395  plane waves:     118
 k-point 45 :   0.0526 0.4474 0.0526  plane waves:     118
 k-point 46 :   0.0658 0.4342 0.0658  plane waves:     118
 k-point 47 :   0.0789 0.4211 0.0789  plane waves:     122
 k-point 48 :   0.0921 0.4079 0.0921  plane waves:     122
 k-point 49 :   0.1053 0.3947 0.1053  plane waves:     120
 k-point 50 :   0.1184 0.3816 0.1184  plane waves:     122
 k-point 51 :   0.1316 0.3684 0.1316  plane waves:     122
 k-point 52 :   0.1447 0.3553 0.1447  plane waves:     122
 k-point 53 :   0.1579 0.3421 0.1579  plane waves:     122
 k-point 54 :   0.1711 0.3289 0.1711  plane waves:     122
 k-point 55 :   0.1842 0.3158 0.1842  plane waves:     122
 k-point 56 :   0.1974 0.3026 0.1974  plane waves:     122
 k-point 57 :   0.2105 0.2895 0.2105  plane waves:     118
 k-point 58 :   0.2237 0.2763 0.2237  plane waves:     118
 k-point 59 :   0.2368 0.2632 0.2368  plane waves:     112
 k-point 60 :   0.2500 0.2500 0.2500  plane waves:     104
[...]
 k-point 85 :   0.0000 0.1053 0.0000  plane waves:     127
 k-point 86 :   0.0000 0.1316 0.0000  plane waves:     123
 k-point 87 :   0.0000 0.1579 0.0000  plane waves:     119
 k-point 88 :   0.0000 0.1842 0.0000  plane waves:     121
 k-point 89 :   0.0000 0.2105 0.0000  plane waves:     121
 k-point 90 :   0.0000 0.2368 0.0000  plane waves:     121
 k-point 91 :   0.0000 0.2632 0.0000  plane waves:     121
 k-point 92 :   0.0000 0.2895 0.0000  plane waves:     113
 k-point 93 :   0.0000 0.3158 0.0000  plane waves:     112
 k-point 94 :   0.0000 0.3421 0.0000  plane waves:     112
 k-point 95 :   0.0000 0.3684 0.0000  plane waves:     116
 k-point 96 :   0.0000 0.3947 0.0000  plane waves:     116
 k-point 97 :   0.0000 0.4211 0.0000  plane waves:     116
 k-point 98 :   0.0000 0.4474 0.0000  plane waves:     116
 k-point 99 :   0.0000 0.4737 0.0000  plane waves:     116
 k-point ** :   0.0000 0.5000 0.0000  plane waves:     118

 maximum and minimum number of plane-waves per node :       135      104

 maximum number of plane-waves:       135
 maximum index in each direction:
   IXMAX=    3   IYMAX=    3   IZMAX=    3
   IXMIN=   -3   IYMIN=   -3   IZMIN=   -3

 serial   3D FFT for wavefunctions
 parallel 3D FFT for charge:
    minimum data exchange during FFTs selected (reduces bandwidth)

 initial charge density was supplied:
 number of electron       7.9999985 magnetization       2.3384769
 keeping initial charge density in first step

 Maximum index for augmentation-charges         2891 (set IRDMAX)

 First call to EWALD:  gamma=   0.778
 Maximum number of real-space cells 3x 3x 3
 Maximum number of reciprocal cells 3x 3x 3

--------------------------------------- Iteration      1(   1)  ---------------------------------------

 eigenvalue-minimisations  :  4396
 total energy-change (2. order) : 0.8975752E+01  (-0.2817151E+03)
 number of electron       7.9999985 magnetization       2.3384769
 augmentation part        7.9999985 magnetization       2.3384769

 Free energy of the ion-electron system (eV)
  alpha Z        PSCENC =        58.10571186
  Ewald energy   TEWEN  =      -584.29755670
  -Hartree energ DENC   =       -98.78666613
  -exchange      EXHF   =         0.00000000
  -V(xc)+E(xc)   XCENC  =         3.99946285
  PAW double counting   =       509.92684529     -518.92590222
  entropy T*S    EENTRO =        -0.00051296
  eigenvalues    EBANDS =        43.42668152
  atomic energy  EATOM  =       595.52768804
  Solvation  Ediel_sol  =         0.00000000
  free energy    TOTEN  =         8.97575154 eV

  energy without entropy =        8.97626450  energy(sigma->0) =        8.97592253

[...]

 eigenvalue-minimisations  :  4058
 total energy-change (2. order) :-0.1777675E+02  (-0.1601010E+02)
 number of electron       7.9999985 magnetization       2.3384769
 augmentation part        7.9999985 magnetization       2.3384769

[...]

--------------------------------------- Iteration      1(   6)  ---------------------------------------

 eigenvalue-minimisations  :  2998
 total energy-change (2. order) :-0.1432190E-06  (-0.1438309E-06)
 number of electron       7.9999985 magnetization       2.3384769
 augmentation part        7.9999985 magnetization       2.3384769

 Free energy of the ion-electron system (eV)
  alpha Z        PSCENC =        58.10571186
  Ewald energy   TEWEN  =      -584.29755670
  -Hartree energ DENC   =       -98.78666613
  -exchange      EXHF   =         0.00000000
  -V(xc)+E(xc)   XCENC  =         3.99946285
  PAW double counting   =       509.92684529     -518.92590222
  entropy T*S    EENTRO =         0.00068633
  eigenvalues    EBANDS =        25.39610591
  atomic energy  EATOM  =       595.52768804
  Solvation  Ediel_sol  =         0.00000000
  free energy    TOTEN  =        -9.05362478 eV

  energy without entropy =       -9.05431111  energy(sigma->0) =       -9.05385356

 average (electrostatic) potential at core
  the test charge radii are     1.0103
  (the norm of the test charge is              1.0000)
       1 -43.7866

 E-fermi :   5.4793     XC(G=0): -12.9087     alpha+bet :-13.1120

 spin component 1

 k-point     1 :       0.0000    0.0000    0.0000
  band No.  band energies     occupation
      1      -2.7682      1.00000
      2       3.1180      1.00000
      3       3.1180      1.00000
      4       3.1181      1.00000
      5       4.4844      1.00000
      6       4.4844      1.00000
      7      30.0641      0.00000
      8      30.0641      0.00000
      9      30.0642      0.00000
     10      35.0335      0.00000

[...]

 spin component 2

[...]

 k-point   100 :       0.0000    0.5000    0.0000
  band No.  band energies     occupation
      1       2.0443      1.00000
      2       3.9989      1.00000
      3       6.1192     -0.00003
      4       6.9044     -0.00000
      5       7.2319     -0.00000
      6       8.0716     -0.00000
      7      13.8641      0.00000
      8      23.5144      0.00000
      9      25.6428      0.00000
     10      29.0392      0.00000

 soft charge-density along one line, spin component           1
         0         1         2         3         4         5         6         7         8         9
 total charge-density along one line

 soft charge-density along one line, spin component           2
         0         1         2         3         4         5         6         7         8         9
 total charge-density along one line

------------------------ aborting loop because EDIFF is reached ----------------------------------------

 total charge

# of ion       s       p       d       tot
    1        0.539   0.351   6.374   7.264

 magnetization (x)

[...]

  FORCE on cell =-STRESS in cart. coord.  units (eV):
  Direction    XX          YY          ZZ          XY          YZ          ZX
  Alpha Z    58.10571    58.10571    58.10571
  Ewald    -194.76585  -194.76585  -194.76585     0.00000     0.00000     0.00000
  Hartree    35.01759    35.01759    35.01759    -0.00000    -0.00000    -0.00000
  E(xc)     -39.74210   -39.74210   -39.74210     0.00006     0.00006     0.00006
  Local      59.72232    59.72232    59.72232    -0.00022    -0.00022    -0.00022
  n-local   -26.95134   -24.54004   -26.50491    -0.17643    -0.17649    -1.60131
  augment    39.68658    39.68658    39.68658     0.00053     0.00053     0.00053
  Kinetic    73.11955    71.97985    72.58334     0.34283     0.34284     1.65826
  Fock        0.00000     0.00000     0.00000     0.00000     0.00000     0.00000
  Total       4.58640     4.58640     4.58640     0.00000    -0.00000     0.00000
  in kB     621.67997   621.67997   621.67997     0.00000    -0.00000     0.00000

 VOLUME and BASIS-vectors are now :
  energy-cutoff  :      267.91
  volume of cell :       11.82
      direct lattice vectors                 reciprocal lattice vectors
    -1.435000000  1.435000000  1.435000000     0.000000000  0.348432056  0.348432056
     1.435000000 -1.435000000  1.435000000     0.348432056  0.000000000  0.348432056
     1.435000000  1.435000000 -1.435000000     0.348432056  0.348432056  0.000000000

  length of vectors
     2.485492909  2.485492909  2.485492909     0.492757339  0.492757339  0.492757339

 FORCES acting on ions
    electron-ion (+dipol)            ewald-force                    non-local-force                 convergence-correction
   0.142E-12 -.840E-13 -.304E-13   0.131E-14 -.418E-15 -.327E-17   -.318E-21 -.318E-21 0.212E-21   -.421E-12 -.974E-13 0.421E-12
   0.142E-12 -.840E-13 -.304E-13   0.131E-14 -.418E-15 -.327E-17   -.318E-21 -.318E-21 0.212E-21   -.421E-12 -.974E-13 0.421E-12

 POSITION                                       TOTAL-FORCE (eV/Angst)
      0.00000      0.00000      0.00000         0.000000     -0.000000      0.000000
    total drift:                               -0.000000     -0.000000      0.000000

  FREE ENERGIE OF THE ION-ELECTRON SYSTEM (eV)
  free  energy   TOTEN  =        -9.05362478 eV

  energy  without entropy=       -9.05431111  energy(sigma->0) =       -9.05385356

 total charge

[...]

 magnetization (x)

# of ion       s       p       d       tot
    1       -0.006  -0.018   2.374   2.350