 vasp.5.4.4.18Apr17-6-g9f103f2a35 (build May 20 2018 16:52:39) complex

 executed on             LinuxIFC date 2022.10.01  21:51:53

 INCAR:
 POTCAR:    PAW Si
 POTCAR:    PAW Si
   VRHFIN =Si: s2p2

   TITEL  = PAW Si
   POMASS =   28.085; ZVAL   =    4.000    mass and valenz
   ENMAX  =  245.435; ENMIN  =  184.076 eV
   QCUT   =   -4.247; QGAM   =    8.494    optimization parameters

   Description
     l     E      TYP  RCUT    TYP  RCUT
     0   .000     23  1.900
     0   .000     23  1.900
     1   .000     23  1.900
     1   .000     23  1.900
     2   .000      7  1.900

  PAW Si                                :

 POSCAR: Si diamond structure
  positions in direct lattice
 exchange correlation table for  LEXCH =        7
   RHO(1)=    0.500       N(1)  =     2000
   RHO(2)=  100.500       N(2)  =     4000

 ion  position               nearest neighbor table
   1  0.000  0.000  0.000-   2 2.35   2 2.35   2 2.35   2 2.35
   2  0.250  0.250  0.250-   1 2.35   1 2.35   1 2.35   1 2.35

  LATTYP: Found a face centered cubic cell.
 ALAT       =     5.4300000000

  Lattice vectors:

 A1 = (   0.0000000000,   2.7150000000,   2.7150000000)
 A2 = (   2.7150000000,   0.0000000000,   2.7150000000)
 A3 = (   2.7150000000,   2.7150000000,   0.0000000000)

Analysis of symmetry for initial positions (statically):
 Subroutine PRICEL returns:
 Original cell was already a primitive cell.

 Routine SETGRP: Setting up the symmetry group for a
 face centered cubic supercell.

 Subroutine GETGRP returns: Found 48 space group operations
 (whereof 24 operations were pure point group operations)
 out of a pool of 48 trial point group operations.

The static configuration has the point symmetry T_d .
 The point group associated with its full space group is O_h .

Analysis of symmetry for dynamics (positions and initial velocities):
 Subroutine PRICEL returns:
 Original cell was already a primitive cell.

 Routine SETGRP: Setting up the symmetry group for a
 face centered cubic supercell.

 Subroutine GETGRP returns: Found 48 space group operations
 (whereof 24 operations were pure point group operations)
 out of a pool of 48 trial point group operations.

The dynamic configuration has the point symmetry T_d .
 The point group associated with its full space group is O_h .

 Subroutine INISYM returns: Found 48 space group operations
 (whereof 24 operations are pure point group operations),
 and found     1 'primitive' translations

 KPOINTS: K-Path Generated by VASPKIT.
  interpolating k-points between supplied coordinates
  k-points in reciprocal lattice
Space group operators:
 irot       det(A)        alpha          n_x          n_y          n_z        tau_x        tau_y        tau_z
    1     1.000000     0.000001     1.000000     0.000000     0.000000     0.000000     0.000000     0.000000
    2     1.000000   120.000000    -0.577350    -0.577350    -0.577350     0.000000     0.000000     0.000000
    3     1.000000   120.000000     0.577350     0.577350     0.577350     0.000000     0.000000     0.000000
    4    -1.000000    90.000000     0.000000     0.000000    -1.000000     0.000000     0.000000     0.000000
    5    -1.000000   180.000000     0.000000     0.707107     0.707107     0.000000     0.000000     0.000000
    6    -1.000000    90.000000     0.000000     1.000000     0.000000     0.000000     0.000000     0.000000
    7     1.000000   180.000000     0.000000     0.000000     1.000000     0.000000     0.000000     0.000000
    8     1.000000   120.000000    -0.577350     0.577350     0.577350     0.000000     0.000000     0.000000
    9     1.000000   120.000000    -0.577350     0.577350    -0.577350     0.000000     0.000000     0.000000
   10    -1.000000    90.000000     0.000000     0.000000     1.000000     0.000000     0.000000     0.000000
   11    -1.000000    90.000000    -1.000000     0.000000     0.000000     0.000000     0.000000     0.000000
   12    -1.000000   180.000000     0.707107     0.000000     0.707107     0.000000     0.000000     0.000000
   13     1.000000   120.000000     0.577350    -0.577350     0.577350     0.000000     0.000000     0.000000
   14     1.000000   120.000000    -0.577350    -0.577350     0.577350     0.000000     0.000000     0.000000
   15     1.000000   180.000000     1.000000     0.000000     0.000000     0.000000     0.000000     0.000000
   16    -1.000000    90.000000     0.000000    -1.000000     0.000000     0.000000     0.000000     0.000000
   17    -1.000000   180.000000     0.707107     0.707107     0.000000     0.000000     0.000000     0.000000
   18    -1.000000    90.000000     1.000000     0.000000     0.000000     0.000000     0.000000     0.000000
   19     1.000000   120.000000     0.577350    -0.577350    -0.577350     0.000000     0.000000     0.000000
   20     1.000000   180.000000     0.000000     1.000000     0.000000     0.000000     0.000000     0.000000
   21     1.000000   120.000000     0.577350     0.577350    -0.577350     0.000000     0.000000     0.000000
   22    -1.000000   180.000000     0.000000    -0.707107     0.707107     0.000000     0.000000     0.000000
   23    -1.000000   180.000000     0.707107    -0.707107     0.000000     0.000000     0.000000     0.000000
   24    -1.000000   180.000000     0.707107     0.000000    -0.707107     0.000000     0.000000     0.000000
   25    -1.000000     0.000001     1.000000     0.000000     0.000000     0.250000     0.250000     0.250000
   26    -1.000000   120.000000    -0.577350    -0.577350    -0.577350     0.250000     0.250000     0.250000
   27    -1.000000   120.000000     0.577350     0.577350     0.577350     0.250000     0.250000     0.250000
   28     1.000000    90.000000     0.000000     0.000000    -1.000000     0.250000     0.250000     0.250000
   29     1.000000   180.000000     0.000000     0.707107     0.707107     0.250000     0.250000     0.250000
   30     1.000000    90.000000     0.000000     1.000000     0.000000     0.250000     0.250000     0.250000
   31    -1.000000   180.000000     0.000000     0.000000     1.000000     0.250000     0.250000     0.250000
   32    -1.000000   120.000000    -0.577350     0.577350     0.577350     0.250000     0.250000     0.250000
   33    -1.000000   120.000000    -0.577350     0.577350    -0.577350     0.250000     0.250000     0.250000
   34     1.000000    90.000000     0.000000     0.000000     1.000000     0.250000     0.250000     0.250000
   35     1.000000    90.000000    -1.000000     0.000000     0.000000     0.250000     0.250000     0.250000
   36     1.000000   180.000000     0.707107     0.000000     0.707107     0.250000     0.250000     0.250000
   37    -1.000000   120.000000     0.577350    -0.577350     0.577350     0.250000     0.250000     0.250000
   38    -1.000000   120.000000    -0.577350    -0.577350     0.577350     0.250000     0.250000     0.250000
   39    -1.000000   180.000000     1.000000     0.000000     0.000000     0.250000     0.250000     0.250000
   40     1.000000    90.000000     0.000000    -1.000000     0.000000     0.250000     0.250000     0.250000
   41     1.000000   180.000000     0.707107     0.707107     0.000000     0.250000     0.250000     0.250000
   42     1.000000    90.000000     1.000000     0.000000     0.000000     0.250000     0.250000     0.250000
   43    -1.000000   120.000000     0.577350    -0.577350    -0.577350     0.250000     0.250000     0.250000
   44    -1.000000   180.000000     0.000000     1.000000     0.000000     0.250000     0.250000     0.250000
   45    -1.000000   120.000000     0.577350     0.577350    -0.577350     0.250000     0.250000     0.250000
   46     1.000000   180.000000     0.000000    -0.707107     0.707107     0.250000     0.250000     0.250000
   47     1.000000   180.000000     0.707107    -0.707107     0.000000     0.250000     0.250000     0.250000
   48     1.000000   180.000000     0.707107     0.000000    -0.707107     0.250000     0.250000     0.250000

 SYSTEM =  diamond Si
 POSCAR =  Si diamond structure

 Startparameter for this run:
   NWRITE =      2    write-flag & timer
   PREC   = normal    normal or accurate (medium, high low for compatibility)
   ISTART =      0    job   : 0-new  1-cont  2-samecut
   ICHARG =     11    charge: 1-file 2-atom 10-const
   ISPIN  =      1    spin polarized calculation?
   LNONCOLLINEAR =      F non collinear calculations
   LSORBIT =      F    spin-orbit coupling
   INIWAV =      1    electr: 0-lowe 1-rand  2-diag
   LASPH  =      F    aspherical Exc in radial PAW
   METAGGA=      F    non-selfconsistent MetaGGA calc.

 Electronic Relaxation 1
   ENCUT  =  500.0 eV  36.75 Ry    6.06 a.u.   7.00  7.00  7.00*2*pi/ulx,y,z
   ENINI  =  500.0     initial cutoff
   ENAUG  =  322.1 eV  augmentation charge cutoff
   NELM   =     60;   NELMIN=  2; NELMDL= -5     # of ELM steps
   EDIFF  = 0.1E-06   stopping-criterion for ELM
   LREAL  =      F    real-space projection
   NLSPLINE    = F    spline interpolate recip. space projectors
   LCOMPAT=      F    compatible to vasp.4.4
   GGA_COMPAT  = T    GGA compatible to vasp.4.4-vasp.4.6
   LMAXPAW     = -100 max onsite density
   LMAXMIX     =    2 max onsite mixed and CHGCAR
   VOSKOWN=      0    Vosko Wilk Nusair interpolation
   ROPT   =    0.00000
 Ionic relaxation
   EDIFFG = 0.1E-05   stopping-criterion for IOM
   NSW    =      0    number of steps for IOM
   NBLOCK =      1;   KBLOCK =      1    inner block; outer block
   IBRION =     -1    ionic relax: 0-MD 1-quasi-New 2-CG
   NFREE  =      0    steps in history (QN), initial steepest desc. (CG)
   ISIF   =      2    stress and relaxation
   IWAVPR =     10    prediction:  0-non 1-charg 2-wave 3-comb
   ISYM   =      2    0-nonsym 1-usesym 2-fastsym
   LCORR  =      T    Harris-Foulkes like correction to forces

   POTIM  = 0.5000    time-step for ionic-motion
   TEIN   =    0.0    initial temperature
   TEBEG  =    0.0;   TEEND  =   0.0 temperature during run
   SMASS  =  -3.00    Nose mass-parameter (am)
   estimated Nose-frequenzy (Omega)   =  0.10E-29 period in steps =****** mass=  -0.337E-27a.u.
   SCALEE = 1.0000    scale energy and forces
   NPACO  =    256;   APACO  = 16.0  distance and # of slots for P.C.
   PSTRESS=    0.0 pullay stress

  Mass of Ions in am
   POMASS =  28.09
  Ionic Valenz
   ZVAL   =   4.00
  Atomic Wigner-Seitz radii
  virtual crystal weights
   VCA    =   1.00
   NELECT =       8.0000    total number of electrons
   NUPDOWN=      -1.0000    fix difference up-down

 DOS related values:
   EMIN   =  10.00;   EMAX   =-10.00  energy-range for DOS
   EFERMI =   0.00
   ISMEAR =     0;   SIGMA  =   0.10  broadening in eV -4-tet -1-fermi 0-gaus

 Electronic relaxation 2 (details)
   IALGO  =     38    algorithm
   LDIAG  =      T    sub-space diagonalisation (order eigenvalues)
   LSUBROT=      F    optimize rotation matrix (better conditioning)
   TURBO    =      0    0=normal 1=particle mesh
   IRESTART =      0    0=no restart 2=restart with 2 vectors
   NREBOOT  =      0    no. of reboots
   NMIN     =      0    reboot dimension
   EREF     =   0.00    reference energy to select bands
[...]
   0.50000000  0.05612245  0.55612245       0.003
   0.50000000  0.05102041  0.55102041       0.003
   0.50000000  0.04591837  0.54591837       0.003
   0.50000000  0.04081633  0.54081633       0.003
   0.50000000  0.03571429  0.53571429       0.003
   0.50000000  0.03061224  0.53061224       0.003
   0.50000000  0.02551020  0.52551020       0.003
   0.50000000  0.02040816  0.52040816       0.003
   0.50000000  0.01530612  0.51530612       0.003
   0.50000000  0.01020408  0.51020408       0.003
   0.50000000  0.00510204  0.50510204       0.003
   0.50000000  0.00000000  0.50000000       0.003

 position of ions in fractional coordinates (direct lattice)
   0.00000000  0.00000000  0.00000000
   0.25000000  0.25000000  0.25000000

 position of ions in cartesian coordinates  (Angst):
   0.00000000  0.00000000  0.00000000
   1.35750000  1.35750000  1.35750000

 k-point  1 :   0.0000 0.0000 0.0000  plane waves:     965
 k-point  2 :   0.0102 0.0000 0.0102  plane waves:     965
 k-point  3 :   0.0204 0.0000 0.0204  plane waves:     965
 k-point  4 :   0.0306 0.0000 0.0306  plane waves:     969
 k-point  5 :   0.0408 0.0000 0.0408  plane waves:     981
 k-point  6 :   0.0510 0.0000 0.0510  plane waves:     990
 k-point  7 :   0.0612 0.0000 0.0612  plane waves:     990
 k-point  8 :   0.0714 0.0000 0.0714  plane waves:     990
 k-point  9 :   0.0816 0.0000 0.0816  plane waves:     990
 k-point 10 :   0.0918 0.0000 0.0918  plane waves:    1002
 k-point 11 :   0.1020 0.0000 0.1020  plane waves:    1002
 k-point 12 :   0.1122 0.0000 0.1122  plane waves:    1002
 k-point 13 :   0.1224 0.0000 0.1224  plane waves:     994
 k-point 14 :   0.1327 0.0000 0.1327  plane waves:     994
 k-point 15 :   0.1429 0.0000 0.1429  plane waves:     994
 k-point 16 :   0.1531 0.0000 0.1531  plane waves:     998
 k-point 17 :   0.1633 0.0000 0.1633  plane waves:     998
 k-point 18 :   0.1735 0.0000 0.1735  plane waves:     998
 k-point 19 :   0.1837 0.0000 0.1837  plane waves:     998
 k-point 20 :   0.1939 0.0000 0.1939  plane waves:     998
 k-point 21 :   0.2041 0.0000 0.2041  plane waves:     998
 k-point 22 :   0.2143 0.0000 0.2143  plane waves:     998
 k-point 23 :   0.2245 0.0000 0.2245  plane waves:     998
 k-point 24 :   0.2347 0.0000 0.2347  plane waves:     998
 k-point 25 :   0.2449 0.0000 0.2449  plane waves:     998
 k-point 26 :   0.2551 0.0000 0.2551  plane waves:     998
 k-point 27 :   0.2653 0.0000 0.2653  plane waves:    1018
 k-point 28 :   0.2755 0.0000 0.2755  plane waves:    1018
 k-point 29 :   0.2857 0.0000 0.2857  plane waves:    1018
 k-point 30 :   0.2959 0.0000 0.2959  plane waves:    1018
 k-point 31 :   0.3061 0.0000 0.3061  plane waves:    1018
 k-point 32 :   0.3163 0.0000 0.3163  plane waves:    1018
 k-point 33 :   0.3265 0.0000 0.3265  plane waves:    1018
 k-point 34 :   0.3367 0.0000 0.3367  plane waves:    1018
 k-point 35 :   0.3469 0.0000 0.3469  plane waves:    1026
 k-point 36 :   0.3571 0.0000 0.3571  plane waves:    1026
 k-point 37 :   0.3673 0.0000 0.3673  plane waves:    1026
 k-point 38 :   0.3776 0.0000 0.3776  plane waves:    1026
 k-point 39 :   0.3878 0.0000 0.3878  plane waves:    1026
 k-point 40 :   0.3980 0.0000 0.3980  plane waves:    1018
 k-point 41 :   0.4082 0.0000 0.4082  plane waves:    1014
 k-point 42 :   0.4184 0.0000 0.4184  plane waves:    1006
 k-point 43 :   0.4286 0.0000 0.4286  plane waves:    1006
 k-point 44 :   0.4388 0.0000 0.4388  plane waves:    1006
 k-point 45 :   0.4490 0.0000 0.4490  plane waves:    1010
 k-point 46 :   0.4592 0.0000 0.4592  plane waves:    1014
 k-point 47 :   0.4694 0.0000 0.4694  plane waves:    1014
 k-point 48 :   0.4796 0.0000 0.4796  plane waves:    1018
 k-point 49 :   0.4898 0.0000 0.4898  plane waves:    1018
 k-point 50 :   0.5000 0.0000 0.5000  plane waves:    1034
 k-point 51 :   0.5000 0.0000 0.5000  plane waves:    1034
 k-point 52 :   0.5026 0.0051 0.5026  plane waves:    1017
 k-point 53 :   0.5051 0.0102 0.5051  plane waves:    1017
 k-point 54 :   0.5077 0.0153 0.5077  plane waves:    1017
 k-point 55 :   0.5102 0.0204 0.5102  plane waves:    1017
 k-point 56 :   0.5128 0.0255 0.5128  plane waves:    1017
 k-point 57 :   0.5153 0.0306 0.5153  plane waves:    1017
 k-point 58 :   0.5179 0.0357 0.5179  plane waves:    1017
 k-point 59 :   0.5204 0.0408 0.5204  plane waves:    1017
 k-point 60 :   0.5230 0.0459 0.5230  plane waves:    1015
[...]
 k-point 85 :   0.5867 0.1735 0.5867  plane waves:    1019
 k-point 86 :   0.5893 0.1786 0.5893  plane waves:    1019
 k-point 87 :   0.5918 0.1837 0.5918  plane waves:    1019
 k-point 88 :   0.5944 0.1888 0.5944  plane waves:    1019
 k-point 89 :   0.5969 0.1939 0.5969  plane waves:    1019
 k-point 90 :   0.5995 0.1990 0.5995  plane waves:    1015
 k-point 91 :   0.6020 0.2041 0.6020  plane waves:    1015
 k-point 92 :   0.6046 0.2092 0.6046  plane waves:    1015
 k-point 93 :   0.6071 0.2143 0.6071  plane waves:    1015
 k-point 94 :   0.6097 0.2194 0.6097  plane waves:    1015
 k-point 95 :   0.6122 0.2245 0.6122  plane waves:    1015
 k-point 96 :   0.6148 0.2296 0.6148  plane waves:    1015
 k-point 97 :   0.6173 0.2347 0.6173  plane waves:    1015
 k-point 98 :   0.6199 0.2398 0.6199  plane waves:    1015
 k-point 99 :   0.6224 0.2449 0.6224  plane waves:    1011
 k-point ** :   0.6250 0.2500 0.6250  plane waves:    1011
 k-point ** :   0.3750 0.3750 0.7500  plane waves:    1011
 k-point ** :   0.3673 0.3673 0.7347  plane waves:    1015
 k-point ** :   0.3597 0.3597 0.7194  plane waves:    1015
 k-point ** :   0.3520 0.3520 0.7041  plane waves:    1017
 k-point ** :   0.3444 0.3444 0.6888  plane waves:    1025
 k-point ** :   0.3367 0.3367 0.6735  plane waves:    1015
 k-point ** :   0.3291 0.3291 0.6582  plane waves:    1015
 k-point ** :   0.3214 0.3214 0.6429  plane waves:    1019
 k-point ** :   0.3138 0.3138 0.6276  plane waves:    1015
 k-point ** :   0.3061 0.3061 0.6122  plane waves:    1015
 k-point ** :   0.2985 0.2985 0.5969  plane waves:    1011
 k-point ** :   0.2908 0.2908 0.5816  plane waves:    1015
 k-point ** :   0.2832 0.2832 0.5663  plane waves:    1015
 k-point ** :   0.2755 0.2755 0.5510  plane waves:    1019
 k-point ** :   0.2679 0.2679 0.5357  plane waves:    1019
 k-point ** :   0.2602 0.2602 0.5204  plane waves:    1019
 k-point ** :   0.2526 0.2526 0.5051  plane waves:    1019
 k-point ** :   0.2449 0.2449 0.4898  plane waves:    1019
 k-point ** :   0.2372 0.2372 0.4745  plane waves:    1023
 k-point ** :   0.2296 0.2296 0.4592  plane waves:    1015
 k-point ** :   0.2219 0.2219 0.4439  plane waves:    1015
 k-point ** :   0.2143 0.2143 0.4286  plane waves:    1009
 k-point ** :   0.2066 0.2066 0.4133  plane waves:    1013
 k-point ** :   0.1990 0.1990 0.3980  plane waves:    1015
 k-point ** :   0.1913 0.1913 0.3827  plane waves:    1009
 k-point ** :   0.1837 0.1837 0.3673  plane waves:    1009
 k-point ** :   0.1760 0.1760 0.3520  plane waves:    1009
 k-point ** :   0.1684 0.1684 0.3367  plane waves:    1013
 k-point ** :   0.1607 0.1607 0.3214  plane waves:    1007
 k-point ** :   0.1531 0.1531 0.3061  plane waves:     999
 k-point ** :   0.1454 0.1454 0.2908  plane waves:     999
 k-point ** :   0.1378 0.1378 0.2755  plane waves:     999
 k-point ** :   0.1301 0.1301 0.2602  plane waves:     999
 k-point ** :   0.1224 0.1224 0.2449  plane waves:     997
 k-point ** :   0.1148 0.1148 0.2296  plane waves:    1001
 k-point ** :   0.1071 0.1071 0.2143  plane waves:     997
 k-point ** :   0.0995 0.0995 0.1990  plane waves:     997
 k-point ** :   0.0918 0.0918 0.1837  plane waves:     997
 k-point ** :   0.0842 0.0842 0.1684  plane waves:     993
 k-point ** :   0.0765 0.0765 0.1531  plane waves:     993
 k-point ** :   0.0689 0.0689 0.1378  plane waves:     993
 k-point ** :   0.0612 0.0612 0.1224  plane waves:     991
 k-point ** :   0.0536 0.0536 0.1071  plane waves:     991
 k-point ** :   0.0459 0.0459 0.0918  plane waves:     989
 k-point ** :   0.0383 0.0383 0.0765  plane waves:     983
 k-point ** :   0.0306 0.0306 0.0612  plane waves:     977
 k-point ** :   0.0230 0.0230 0.0459  plane waves:     975
 k-point ** :   0.0153 0.0153 0.0306  plane waves:     965
 k-point ** :   0.0077 0.0077 0.0153  plane waves:     965
 k-point ** :   0.0000 0.0000 0.0000  plane waves:     965
 k-point ** :   0.0000 0.0000 0.0000  plane waves:     965
 k-point ** :   0.0102 0.0102 0.0102  plane waves:     965
 k-point ** :   0.0204 0.0204 0.0204  plane waves:     965
 k-point ** :   0.0306 0.0306 0.0306  plane waves:     968
 k-point ** :   0.0408 0.0408 0.0408  plane waves:     977
 k-point ** :   0.0510 0.0510 0.0510  plane waves:     977
 k-point ** :   0.0612 0.0612 0.0612  plane waves:     983
 k-point ** :   0.0714 0.0714 0.0714  plane waves:     980
 k-point ** :   0.0816 0.0816 0.0816  plane waves:     992
[...]
 k-point ** :   0.5000 0.0714 0.5714  plane waves:    1010
 k-point ** :   0.5000 0.0663 0.5663  plane waves:    1010
 k-point ** :   0.5000 0.0612 0.5612  plane waves:    1012
 k-point ** :   0.5000 0.0561 0.5561  plane waves:    1012
 k-point ** :   0.5000 0.0510 0.5510  plane waves:    1012
 k-point ** :   0.5000 0.0459 0.5459  plane waves:    1012
 k-point ** :   0.5000 0.0408 0.5408  plane waves:    1016
 k-point ** :   0.5000 0.0357 0.5357  plane waves:    1016
 k-point ** :   0.5000 0.0306 0.5306  plane waves:    1016
 k-point ** :   0.5000 0.0255 0.5255  plane waves:    1016
 k-point ** :   0.5000 0.0204 0.5204  plane waves:    1016
 k-point ** :   0.5000 0.0153 0.5153  plane waves:    1016
 k-point ** :   0.5000 0.0102 0.5102  plane waves:    1016
 k-point ** :   0.5000 0.0051 0.5051  plane waves:    1016
 k-point ** :   0.5000 0.0000 0.5000  plane waves:    1034

 maximum and minimum number of plane-waves per node :      1036      965

 maximum number of plane-waves:      1036
 maximum index in each direction:
   IXMAX=    6   IYMAX=    7   IZMAX=    6
   IXMIN=   -7   IYMIN=   -7   IZMIN=   -7

 serial   3D FFT for wavefunctions
 parallel 3D FFT for charge:
    minimum data exchange during FFTs selected (reduces bandwidth)

 initial charge density was supplied:
 number of electron       7.9999999 magnetization
 keeping initial charge density in first step

 Maximum index for augmentation-charges        11057 (set IRDMAX)

 First call to EWALD:  gamma=   0.518
 Maximum number of real-space cells 3x 3x 3
 Maximum number of reciprocal cells 3x 3x 3

--------------------------------------- Iteration      1(   1)  ---------------------------------------

 eigenvalue-minimisations  :  4808
 total energy-change (2. order) : 0.7769108E+01  (-0.3211765E+03)
 number of electron       7.9999999 magnetization
 augmentation part        7.9999999 magnetization

 Free energy of the ion-electron system (eV)
  alpha Z        PSCENC =         3.24298762
  Ewald energy   TEWEN  =      -228.56352493
  -Hartree energ DENC   =       -15.00867141
  -exchange      EXHF   =         0.00000000
  -V(xc)+E(xc)   XCENC  =       -18.45142324
  PAW double counting   =        74.74430996      -39.40552429
  entropy T*S    EENTRO =        -0.00258558
  eigenvalues    EBANDS =        24.59963843
  atomic energy  EATOM  =       206.61390135
  Solvation  Ediel_sol  =         0.00000000
  free energy    TOTEN  =         7.76910792 eV

  energy without entropy =        7.77169350  energy(sigma->0) =        7.77040071

[...]

 eigenvalue-minimisations  :  7360
 total energy-change (2. order) :-0.1677572E+02  (-0.1606065E+02)
 number of electron       7.9999999 magnetization
 augmentation part        7.9999999 magnetization

[...]

--------------------------------------- Iteration      1(   6)  ---------------------------------------

 eigenvalue-minimisations  :  8208
 total energy-change (2. order) :-0.2634317E-07  (-0.2621940E-07)
 number of electron       7.9999999 magnetization
 augmentation part        7.9999999 magnetization

 Free energy of the ion-electron system (eV)
  alpha Z        PSCENC =         3.24298762
  Ewald energy   TEWEN  =      -228.56352493
  -Hartree energ DENC   =       -15.00867141
  -exchange      EXHF   =         0.00000000
  -V(xc)+E(xc)   XCENC  =       -18.45142324
  PAW double counting   =        74.74430996      -39.40552429
  entropy T*S    EENTRO =        -0.00000062
  eigenvalues    EBANDS =         7.56244093
  atomic energy  EATOM  =       206.61390135
  Solvation  Ediel_sol  =         0.00000000
  free energy    TOTEN  =        -9.26550463 eV

  energy without entropy =       -9.26550400  energy(sigma->0) =       -9.26550431

 average (electrostatic) potential at core
  the test charge radii are     0.9892
  (the norm of the test charge is              1.0000)
       1 -83.4928       2 -83.4928

 E-fermi :   6.1012     XC(G=0):  -9.4343     alpha+bet :-11.9992

 k-point     1 :       0.0000    0.0000    0.0000
  band No.  band energies     occupation
      1      -6.1447      2.00000
      2       5.7959      1.99998
      3       5.7959      1.99998
      4       5.7959      1.99998
      5       8.3823      0.00000
      6       8.3823      0.00000
      7       8.3823      0.00000
      8       9.1679      0.00000

[...]

 k-point   300 :       0.5000    0.0000    0.5000
  band No.  band energies     occupation
      1      -2.0042      2.00000
      2      -2.0042      2.00000
      3       2.9582      2.00000
      4       2.9582      2.00000
      5       6.5232      0.00000
      6       6.5232      0.00000
      7      15.9143      0.00000
      8      15.9157      0.00000

 soft charge-density along one line, spin component           1
         0         1         2         3         4         5         6         7         8         9
 total charge-density along one line

------------------------ aborting loop because EDIFF is reached ----------------------------------------

 total charge

# of ion       s       p       d       tot
    1        0.715   0.996   0.000   1.711
    2        0.715   0.996   0.000   1.711
tot          1.430   1.992   0.000   3.422

  FORCE on cell =-STRESS in cart. coord.  units (eV):
  Direction    XX          YY          ZZ          XY          YZ          ZX
  Alpha Z     3.24299     3.24299     3.24299
  Ewald     -76.18788   -76.18788   -76.18788     0.00000    -0.00000     0.00000
  Hartree     5.40922     5.40922     5.40922     0.00000     0.00000     0.00000
  E(xc)     -25.50474   -25.50474   -25.50474     0.00000     0.00000     0.00000
  Local     -30.36669   -30.36669   -30.36669     0.00001     0.00001     0.00001
  n-local    79.98944    74.66414    78.53217    -1.63969    -0.70333    -1.21467
  augment   -11.49874   -11.49874   -11.49874    -0.00001    -0.00001    -0.00001
  Kinetic    59.89527    56.80349    61.20420    -1.45635    -1.09077    -1.75779
  Fock        0.00000     0.00000     0.00000     0.00000     0.00000     0.00000
  Total       2.12374     2.12374     2.12374     0.00000    -0.00000     0.00000
  in kB      85.01030    85.01030    85.01030     0.00000    -0.00000     0.00000

 VOLUME and BASIS-vectors are now :
  energy-cutoff  :      500.00
  volume of cell :       40.03
      direct lattice vectors                 reciprocal lattice vectors
     0.000000000  2.715000000  2.715000000    -0.184162063  0.184162063  0.184162063
     2.715000000  0.000000000  2.715000000     0.184162063 -0.184162063  0.184162063
     2.715000000  2.715000000  0.000000000     0.184162063  0.184162063 -0.184162063

  length of vectors
     3.839589822  3.839589822  3.839589822     0.318978049  0.318978049  0.318978049

 FORCES acting on ions
    electron-ion (+dipol)            ewald-force                    non-local-force                 convergence-correction
   0.388E-06 0.388E-06 0.388E-06   0.132E-14 -.451E-14 -.305E-14   0.108E-15 0.694E-16 0.833E-16   0.157E-09 0.157E-09 0.157E-09
   -.388E-06 -.388E-06 -.388E-06   -.113E-14 0.493E-14 0.317E-14   -.937E-16 -.520E-16 -.798E-16   -.157E-09 -.157E-09 -.157E-09
   -.389E-13 0.266E-14 0.934E-14   0.187E-15 0.422E-15 0.120E-15   0.139E-16 0.173E-16 0.347E-17   0.292E-15 0.268E-15 -.454E-15

 POSITION                                       TOTAL-FORCE (eV/Angst)
      0.00000      0.00000      0.00000        -0.000000     -0.000000      0.000000
      1.35750      1.35750      1.35750         0.000000      0.000000     -0.000000
    total drift:                               -0.000000      0.000000      0.000000

  FREE ENERGIE OF THE ION-ELECTRON SYSTEM (eV)
  free  energy   TOTEN  =        -9.26550463 eV

  energy  without entropy=       -9.26550400  energy(sigma->0) =       -9.26550431

 total charge

# of ion       s       p       d       tot
    1        0.715   0.996   0.000   1.711
    2        0.715   0.996   0.000   1.711
tot          1.430   1.992   0.000   3.422