 vasp.5.4.4.18Apr17-6-g9f103f2a35 (build May 20 2018 16:52:39) complex

 executed on             LinuxIFC date 2022.11.04  18:26:47

 INCAR:
 POTCAR:   PAW_PBE Si 05Jan2001
 POTCAR:   PAW_PBE Si 05Jan2001
   VRHFIN =Si: s2p2

   TITEL  = PAW_PBE Si 05Jan2001
   POMASS =   28.085; ZVAL   =    4.000    mass and valenz
   ENMAX  =  245.345; ENMIN  =  184.009 eV
   QCUT   =   -4.246; QGAM   =    8.493    optimization parameters

   Description
     l     E      TYP  RCUT    TYP  RCUT
     0   .000     23  1.900
     0   .000     23  1.900
     1   .000     23  1.900
     1   .000     23  1.900
     2   .000      7  1.900

 PAW_PBE Si 05Jan2001                   :

 POSCAR: primitive Si
  positions in direct lattice
 exchange correlation table for  LEXCH =        8
   RHO(1)=    0.500       N(1)  =     2000
   RHO(2)=  100.500       N(2)  =     4000

 ion  position               nearest neighbor table
   1  0.000  0.000  0.000-   2 2.35   2 2.35   2 2.35   2 2.35
   2  0.250  0.250  0.250-   1 2.35   1 2.35   1 2.35   1 2.35

  LATTYP: Found a face centered cubic cell.
 ALAT       =     5.4300000000

  Lattice vectors:

 A1 = (   0.0000000000,   2.7150000000,   2.7150000000)
 A2 = (   2.7150000000,   0.0000000000,   2.7150000000)
 A3 = (   2.7150000000,   2.7150000000,   0.0000000000)

Analysis of symmetry for initial positions (statically):
 Subroutine PRICEL returns:
 Original cell was already a primitive cell.

 Routine SETGRP: Setting up the symmetry group for a
 face centered cubic supercell.

 Subroutine GETGRP returns: Found 48 space group operations
 (whereof 24 operations were pure point group operations)
 out of a pool of 48 trial point group operations.

The static configuration has the point symmetry T_d .
 The point group associated with its full space group is O_h .

Analysis of symmetry for dynamics (positions and initial velocities):
 Subroutine PRICEL returns:
 Original cell was already a primitive cell.

 Routine SETGRP: Setting up the symmetry group for a
 face centered cubic supercell.

 Subroutine GETGRP returns: Found 48 space group operations
 (whereof 24 operations were pure point group operations)
 out of a pool of 48 trial point group operations.

The dynamic configuration has the point symmetry T_d .
 The point group associated with its full space group is O_h .

 Subroutine INISYM returns: Found 48 space group operations
 (whereof 24 operations are pure point group operations),
 and found     1 'primitive' translations

 KPOINTS: 16*16*16

Automatic generation of k-mesh.
Space group operators:
 irot       det(A)        alpha          n_x          n_y          n_z        tau_x        tau_y        tau_z
    1     1.000000     0.000001     1.000000     0.000000     0.000000     0.000000     0.000000     0.000000
    2     1.000000   120.000000    -0.577350    -0.577350    -0.577350     0.000000     0.000000     0.000000
    3     1.000000   120.000000     0.577350     0.577350     0.577350     0.000000     0.000000     0.000000
    4    -1.000000    90.000000     0.000000     0.000000    -1.000000     0.000000     0.000000     0.000000
    5    -1.000000   180.000000     0.000000     0.707107     0.707107     0.000000     0.000000     0.000000
    6    -1.000000    90.000000     0.000000     1.000000     0.000000     0.000000     0.000000     0.000000
    7     1.000000   180.000000     0.000000     0.000000     1.000000     0.000000     0.000000     0.000000
    8     1.000000   120.000000    -0.577350     0.577350     0.577350     0.000000     0.000000     0.000000
    9     1.000000   120.000000    -0.577350     0.577350    -0.577350     0.000000     0.000000     0.000000
   10    -1.000000    90.000000     0.000000     0.000000     1.000000     0.000000     0.000000     0.000000
   11    -1.000000    90.000000    -1.000000     0.000000     0.000000     0.000000     0.000000     0.000000
   12    -1.000000   180.000000     0.707107     0.000000     0.707107     0.000000     0.000000     0.000000
   13     1.000000   120.000000     0.577350    -0.577350     0.577350     0.000000     0.000000     0.000000
   14     1.000000   120.000000    -0.577350    -0.577350     0.577350     0.000000     0.000000     0.000000
   15     1.000000   180.000000     1.000000     0.000000     0.000000     0.000000     0.000000     0.000000
   16    -1.000000    90.000000     0.000000    -1.000000     0.000000     0.000000     0.000000     0.000000
   17    -1.000000   180.000000     0.707107     0.707107     0.000000     0.000000     0.000000     0.000000
   18    -1.000000    90.000000     1.000000     0.000000     0.000000     0.000000     0.000000     0.000000
   19     1.000000   120.000000     0.577350    -0.577350    -0.577350     0.000000     0.000000     0.000000
   20     1.000000   180.000000     0.000000     1.000000     0.000000     0.000000     0.000000     0.000000
   21     1.000000   120.000000     0.577350     0.577350    -0.577350     0.000000     0.000000     0.000000
   22    -1.000000   180.000000     0.000000    -0.707107     0.707107     0.000000     0.000000     0.000000
   23    -1.000000   180.000000     0.707107    -0.707107     0.000000     0.000000     0.000000     0.000000
   24    -1.000000   180.000000     0.707107     0.000000    -0.707107     0.000000     0.000000     0.000000
   25    -1.000000     0.000001     1.000000     0.000000     0.000000     0.250000     0.250000     0.250000
   26    -1.000000   120.000000    -0.577350    -0.577350    -0.577350     0.250000     0.250000     0.250000
   27    -1.000000   120.000000     0.577350     0.577350     0.577350     0.250000     0.250000     0.250000
   28     1.000000    90.000000     0.000000     0.000000    -1.000000     0.250000     0.250000     0.250000
   29     1.000000   180.000000     0.000000     0.707107     0.707107     0.250000     0.250000     0.250000
   30     1.000000    90.000000     0.000000     1.000000     0.000000     0.250000     0.250000     0.250000
   31    -1.000000   180.000000     0.000000     0.000000     1.000000     0.250000     0.250000     0.250000
   32    -1.000000   120.000000    -0.577350     0.577350     0.577350     0.250000     0.250000     0.250000
   33    -1.000000   120.000000    -0.577350     0.577350    -0.577350     0.250000     0.250000     0.250000
   34     1.000000    90.000000     0.000000     0.000000     1.000000     0.250000     0.250000     0.250000
   35     1.000000    90.000000    -1.000000     0.000000     0.000000     0.250000     0.250000     0.250000
   36     1.000000   180.000000     0.707107     0.000000     0.707107     0.250000     0.250000     0.250000
   37    -1.000000   120.000000     0.577350    -0.577350     0.577350     0.250000     0.250000     0.250000
   38    -1.000000   120.000000    -0.577350    -0.577350     0.577350     0.250000     0.250000     0.250000
   39    -1.000000   180.000000     1.000000     0.000000     0.000000     0.250000     0.250000     0.250000
   40     1.000000    90.000000     0.000000    -1.000000     0.000000     0.250000     0.250000     0.250000
   41     1.000000   180.000000     0.707107     0.707107     0.000000     0.250000     0.250000     0.250000
   42     1.000000    90.000000     1.000000     0.000000     0.000000     0.250000     0.250000     0.250000
   43    -1.000000   120.000000     0.577350    -0.577350    -0.577350     0.250000     0.250000     0.250000
   44    -1.000000   180.000000     0.000000     1.000000     0.000000     0.250000     0.250000     0.250000
   45    -1.000000   120.000000     0.577350     0.577350    -0.577350     0.250000     0.250000     0.250000
   46     1.000000   180.000000     0.000000    -0.707107     0.707107     0.250000     0.250000     0.250000
   47     1.000000   180.000000     0.707107    -0.707107     0.000000     0.250000     0.250000     0.250000
   48     1.000000   180.000000     0.707107     0.000000    -0.707107     0.250000     0.250000     0.250000

 Subroutine IBZKPT returns following result:

 Found    145 irreducible k-points:

 Following reciprocal coordinates:
            Coordinates               Weight
  0.000000  0.000000  0.000000      1.000000
  0.062500  0.000000  0.000000      8.000000
  0.125000  0.000000  0.000000      8.000000
  0.187500  0.000000  0.000000      8.000000
  0.250000  0.000000  0.000000      8.000000
  0.312500  0.000000  0.000000      8.000000
  0.375000  0.000000  0.000000      8.000000
  0.437500  0.000000  0.000000      8.000000
  0.500000  0.000000  0.000000      4.000000
  0.062500  0.062500  0.000000      6.000000
  0.125000  0.062500  0.000000     24.000000
  0.187500  0.062500  0.000000     24.000000
  0.250000  0.062500  0.000000     24.000000
  0.312500  0.062500  0.000000     24.000000
  0.375000  0.062500  0.000000     24.000000
  0.437500  0.062500  0.000000     24.000000
  0.500000  0.062500  0.000000     24.000000
 -0.437500  0.062500  0.000000     24.000000
 -0.375000  0.062500  0.000000     24.000000
 -0.312500  0.062500  0.000000     24.000000
 -0.250000  0.062500  0.000000     24.000000
 -0.187500  0.062500  0.000000     24.000000
 -0.125000  0.062500  0.000000     24.000000
 -0.062500  0.062500  0.000000     12.000000
  0.125000  0.125000  0.000000      6.000000
  0.187500  0.125000  0.000000     24.000000
  0.250000  0.125000  0.000000     24.000000
  0.312500  0.125000  0.000000     24.000000
  0.375000  0.125000  0.000000     24.000000
  0.437500  0.125000  0.000000     24.000000
  0.500000  0.125000  0.000000     24.000000
 -0.437500  0.125000  0.000000     24.000000
 -0.375000  0.125000  0.000000     24.000000
 -0.312500  0.125000  0.000000     24.000000
 -0.250000  0.125000  0.000000     24.000000
 -0.187500  0.125000  0.000000     24.000000
 -0.125000  0.125000  0.000000     12.000000
  0.187500  0.187500  0.000000      6.000000
  0.250000  0.187500  0.000000     24.000000
  0.312500  0.187500  0.000000     24.000000
  0.375000  0.187500  0.000000     24.000000
  0.437500  0.187500  0.000000     24.000000
  0.500000  0.187500  0.000000     24.000000
 -0.437500  0.187500  0.000000     24.000000
 -0.375000  0.187500  0.000000     24.000000
 -0.312500  0.187500  0.000000     24.000000
 -0.250000  0.187500  0.000000     24.000000
 -0.187500  0.187500  0.000000     12.000000
  0.250000  0.250000  0.000000      6.000000
  0.312500  0.250000  0.000000     24.000000
  0.375000  0.250000  0.000000     24.000000
  0.437500  0.250000  0.000000     24.000000
  0.500000  0.250000  0.000000     24.000000
 -0.437500  0.250000  0.000000     24.000000
 -0.375000  0.250000  0.000000     24.000000
 -0.312500  0.250000  0.000000     24.000000
 -0.250000  0.250000  0.000000     12.000000
  0.312500  0.312500  0.000000      6.000000
  0.375000  0.312500  0.000000     24.000000
  0.437500  0.312500  0.000000     24.000000
[...]
 -0.375000  0.375000  0.125000     48.000000
 -0.312500  0.375000  0.125000     48.000000
 -0.250000  0.375000  0.125000     24.000000
 -0.437500  0.437500  0.125000     24.000000
 -0.375000  0.437500  0.125000     48.000000
 -0.312500  0.437500  0.125000     24.000000
 -0.375000  0.500000  0.125000     12.000000
 -0.437500  0.375000  0.187500     24.000000
[...]
  -0.12500000  0.06250000  0.00000000       0.006
  -0.06250000  0.06250000  0.00000000       0.003
   0.12500000  0.12500000  0.00000000       0.001
   0.18750000  0.12500000  0.00000000       0.006
   0.25000000  0.12500000  0.00000000       0.006
   0.31250000  0.12500000  0.00000000       0.006
   0.37500000  0.12500000  0.00000000       0.006
   0.43750000  0.12500000  0.00000000       0.006
   0.50000000  0.12500000  0.00000000       0.006
  -0.43750000  0.12500000  0.00000000       0.006
  -0.37500000  0.12500000  0.00000000       0.006
  -0.31250000  0.12500000  0.00000000       0.006
  -0.25000000  0.12500000  0.00000000       0.006
  -0.18750000  0.12500000  0.00000000       0.006
  -0.12500000  0.12500000  0.00000000       0.003
   0.18750000  0.18750000  0.00000000       0.001
   0.25000000  0.18750000  0.00000000       0.006
   0.31250000  0.18750000  0.00000000       0.006
   0.37500000  0.18750000  0.00000000       0.006
   0.43750000  0.18750000  0.00000000       0.006
   0.50000000  0.18750000  0.00000000       0.006
  -0.43750000  0.18750000  0.00000000       0.006
  -0.37500000  0.18750000  0.00000000       0.006
  -0.31250000  0.18750000  0.00000000       0.006
  -0.25000000  0.18750000  0.00000000       0.006
  -0.18750000  0.18750000  0.00000000       0.003
   0.25000000  0.25000000  0.00000000       0.001
   0.31250000  0.25000000  0.00000000       0.006
   0.37500000  0.25000000  0.00000000       0.006
   0.43750000  0.25000000  0.00000000       0.006
   0.50000000  0.25000000  0.00000000       0.006
  -0.43750000  0.25000000  0.00000000       0.006
  -0.37500000  0.25000000  0.00000000       0.006
  -0.31250000  0.25000000  0.00000000       0.006
  -0.25000000  0.25000000  0.00000000       0.003
   0.31250000  0.31250000  0.00000000       0.001
   0.37500000  0.31250000  0.00000000       0.006
   0.43750000  0.31250000  0.00000000       0.006
[...]
  -0.37500000  0.37500000  0.12500000       0.012
  -0.31250000  0.37500000  0.12500000       0.012
  -0.25000000  0.37500000  0.12500000       0.006
  -0.43750000  0.43750000  0.12500000       0.006
  -0.37500000  0.43750000  0.12500000       0.012
  -0.31250000  0.43750000  0.12500000       0.006
  -0.37500000  0.50000000  0.12500000       0.003
  -0.43750000  0.37500000  0.18750000       0.006
  -0.37500000  0.37500000  0.18750000       0.012
  -0.31250000  0.37500000  0.18750000       0.006
  -0.37500000  0.43750000  0.18750000       0.006
  -0.31250000  0.43750000  0.18750000       0.012
  -0.25000000  0.43750000  0.18750000       0.006
  -0.31250000  0.50000000  0.18750000       0.003
  -0.25000000  0.50000000  0.25000000       0.001

 position of ions in fractional coordinates (direct lattice)
   0.00000000  0.00000000  0.00000000
   0.25000000  0.25000000  0.25000000

 position of ions in cartesian coordinates  (Angst):
   0.00000000  0.00000000  0.00000000
   1.35750000  1.35750000  1.35750000

 k-point  1 :   0.0000 0.0000 0.0000  plane waves:     459
 k-point  2 :   0.0625 0.0000 0.0000  plane waves:     495
 k-point  3 :   0.1250 0.0000 0.0000  plane waves:     489
 k-point  4 :   0.1875 0.0000 0.0000  plane waves:     483
 k-point  5 :   0.2500 0.0000 0.0000  plane waves:     483
 k-point  6 :   0.3125 0.0000 0.0000  plane waves:     483
 k-point  7 :   0.3750 0.0000 0.0000  plane waves:     477
 k-point  8 :   0.4375 0.0000 0.0000  plane waves:     470
 k-point  9 :   0.5000 0.0000 0.0000  plane waves:     476
 k-point 10 :   0.0625 0.0625 0.0000  plane waves:     495
 k-point 11 :   0.1250 0.0625 0.0000  plane waves:     488
 k-point 12 :   0.1875 0.0625 0.0000  plane waves:     483
 k-point 13 :   0.2500 0.0625 0.0000  plane waves:     481
 k-point 14 :   0.3125 0.0625 0.0000  plane waves:     480
 k-point 15 :   0.3750 0.0625 0.0000  plane waves:     480
 k-point 16 :   0.4375 0.0625 0.0000  plane waves:     476
 k-point 17 :   0.5000 0.0625 0.0000  plane waves:     470
 k-point 18 :  -0.4375 0.0625 0.0000  plane waves:     470
 k-point 19 :  -0.3750 0.0625 0.0000  plane waves:     475
 k-point 20 :  -0.3125 0.0625 0.0000  plane waves:     476
 k-point 21 :  -0.2500 0.0625 0.0000  plane waves:     479
 k-point 22 :  -0.1875 0.0625 0.0000  plane waves:     479
 k-point 23 :  -0.1250 0.0625 0.0000  plane waves:     483
 k-point 24 :  -0.0625 0.0625 0.0000  plane waves:     493
 k-point 25 :   0.1250 0.1250 0.0000  plane waves:     487
 k-point 26 :   0.1875 0.1250 0.0000  plane waves:     481
 k-point 27 :   0.2500 0.1250 0.0000  plane waves:     477
 k-point 28 :   0.3125 0.1250 0.0000  plane waves:     476
 k-point 29 :   0.3750 0.1250 0.0000  plane waves:     471
 k-point 30 :   0.4375 0.1250 0.0000  plane waves:     470
 k-point 31 :   0.5000 0.1250 0.0000  plane waves:     466
 k-point 32 :  -0.4375 0.1250 0.0000  plane waves:     468
 k-point 33 :  -0.3750 0.1250 0.0000  plane waves:     469
 k-point 34 :  -0.3125 0.1250 0.0000  plane waves:     475
 k-point 35 :  -0.2500 0.1250 0.0000  plane waves:     474
 k-point 36 :  -0.1875 0.1250 0.0000  plane waves:     477
 k-point 37 :  -0.1250 0.1250 0.0000  plane waves:     481
 k-point 38 :   0.1875 0.1875 0.0000  plane waves:     480
 k-point 39 :   0.2500 0.1875 0.0000  plane waves:     476
 k-point 40 :   0.3125 0.1875 0.0000  plane waves:     477
 k-point 41 :   0.3750 0.1875 0.0000  plane waves:     468
 k-point 42 :   0.4375 0.1875 0.0000  plane waves:     472
 k-point 43 :   0.5000 0.1875 0.0000  plane waves:     468
 k-point 44 :  -0.4375 0.1875 0.0000  plane waves:     467
 k-point 45 :  -0.3750 0.1875 0.0000  plane waves:     468
 k-point 46 :  -0.3125 0.1875 0.0000  plane waves:     473
 k-point 47 :  -0.2500 0.1875 0.0000  plane waves:     475
 k-point 48 :  -0.1875 0.1875 0.0000  plane waves:     477
 k-point 49 :   0.2500 0.2500 0.0000  plane waves:     480
 k-point 50 :   0.3125 0.2500 0.0000  plane waves:     469
 k-point 51 :   0.3750 0.2500 0.0000  plane waves:     467
 k-point 52 :   0.4375 0.2500 0.0000  plane waves:     467
 k-point 53 :   0.5000 0.2500 0.0000  plane waves:     472
 k-point 54 :  -0.4375 0.2500 0.0000  plane waves:     465
 k-point 55 :  -0.3750 0.2500 0.0000  plane waves:     467
 k-point 56 :  -0.3125 0.2500 0.0000  plane waves:     471
 k-point 57 :  -0.2500 0.2500 0.0000  plane waves:     481
 k-point 58 :   0.3125 0.3125 0.0000  plane waves:     472
 k-point 59 :   0.3750 0.3125 0.0000  plane waves:     468
 k-point 60 :   0.4375 0.3125 0.0000  plane waves:     467
[...]
 k-point 85 :   0.5000 0.1875 0.0625  plane waves:     470
 k-point 86 :  -0.4375 0.1875 0.0625  plane waves:     467
 k-point 87 :  -0.3750 0.1875 0.0625  plane waves:     467
 k-point 88 :  -0.3125 0.1875 0.0625  plane waves:     471
 k-point 89 :  -0.2500 0.1875 0.0625  plane waves:     470
 k-point 90 :  -0.1875 0.1875 0.0625  plane waves:     475
 k-point 91 :  -0.1250 0.1875 0.0625  plane waves:     480
 k-point 92 :   0.3125 0.2500 0.0625  plane waves:     475
 k-point 93 :   0.3750 0.2500 0.0625  plane waves:     473
 k-point 94 :   0.4375 0.2500 0.0625  plane waves:     467
 k-point 95 :   0.5000 0.2500 0.0625  plane waves:     470
 k-point 96 :  -0.4375 0.2500 0.0625  plane waves:     470
 k-point 97 :  -0.3750 0.2500 0.0625  plane waves:     468
 k-point 98 :  -0.3125 0.2500 0.0625  plane waves:     470
 k-point 99 :  -0.2500 0.2500 0.0625  plane waves:     476
 k-point ** :  -0.1875 0.2500 0.0625  plane waves:     473
 k-point ** :   0.3750 0.3125 0.0625  plane waves:     466
 k-point ** :   0.4375 0.3125 0.0625  plane waves:     471
 k-point ** :   0.5000 0.3125 0.0625  plane waves:     469
 k-point ** :  -0.4375 0.3125 0.0625  plane waves:     471
 k-point ** :  -0.3750 0.3125 0.0625  plane waves:     465
 k-point ** :  -0.3125 0.3125 0.0625  plane waves:     469
 k-point ** :  -0.2500 0.3125 0.0625  plane waves:     475
 k-point ** :   0.4375 0.3750 0.0625  plane waves:     467
 k-point ** :   0.5000 0.3750 0.0625  plane waves:     468
 k-point ** :  -0.4375 0.3750 0.0625  plane waves:     472
 k-point ** :  -0.3750 0.3750 0.0625  plane waves:     473
 k-point ** :  -0.3125 0.3750 0.0625  plane waves:     468
 k-point ** :   0.5000 0.4375 0.0625  plane waves:     465
 k-point ** :  -0.4375 0.4375 0.0625  plane waves:     468
 k-point ** :  -0.3750 0.4375 0.0625  plane waves:     471
 k-point ** :  -0.4375 0.5000 0.0625  plane waves:     466
 k-point ** :   0.3750 0.2500 0.1250  plane waves:     466
 k-point ** :   0.4375 0.2500 0.1250  plane waves:     473
 k-point ** :   0.5000 0.2500 0.1250  plane waves:     474
 k-point ** :  -0.4375 0.2500 0.1250  plane waves:     471
 k-point ** :  -0.3750 0.2500 0.1250  plane waves:     470
 k-point ** :   0.4375 0.3125 0.1250  plane waves:     469
 k-point ** :   0.5000 0.3125 0.1250  plane waves:     470
 k-point ** :  -0.4375 0.3125 0.1250  plane waves:     477
 k-point ** :  -0.3750 0.3125 0.1250  plane waves:     472
 k-point ** :  -0.3125 0.3125 0.1250  plane waves:     471
 k-point ** :  -0.2500 0.3125 0.1250  plane waves:     473
 k-point ** :  -0.1875 0.3125 0.1250  plane waves:     476
 k-point ** :   0.5000 0.3750 0.1250  plane waves:     471
 k-point ** :  -0.4375 0.3750 0.1250  plane waves:     472
 k-point ** :  -0.3750 0.3750 0.1250  plane waves:     473
 k-point ** :  -0.3125 0.3750 0.1250  plane waves:     471
 k-point ** :  -0.2500 0.3750 0.1250  plane waves:     468
 k-point ** :  -0.4375 0.4375 0.1250  plane waves:     469
 k-point ** :  -0.3750 0.4375 0.1250  plane waves:     472
 k-point ** :  -0.3125 0.4375 0.1250  plane waves:     471
 k-point ** :  -0.3750 0.5000 0.1250  plane waves:     470
 k-point ** :  -0.4375 0.3750 0.1875  plane waves:     473
 k-point ** :  -0.3750 0.3750 0.1875  plane waves:     476
 k-point ** :  -0.3125 0.3750 0.1875  plane waves:     474
 k-point ** :  -0.3750 0.4375 0.1875  plane waves:     468
 k-point ** :  -0.3125 0.4375 0.1875  plane waves:     470
 k-point ** :  -0.2500 0.4375 0.1875  plane waves:     474
 k-point ** :  -0.3125 0.5000 0.1875  plane waves:     474
 k-point ** :  -0.2500 0.5000 0.2500  plane waves:     464

 maximum and minimum number of plane-waves per node :       495      459

 maximum number of plane-waves:       495
 maximum index in each direction:
   IXMAX=    5   IYMAX=    5   IZMAX=    5
   IXMIN=   -5   IYMIN=   -5   IZMIN=   -5

 serial   3D FFT for wavefunctions
 parallel 3D FFT for charge:
    minimum data exchange during FFTs selected (reduces bandwidth)

 initial charge density was supplied:
 number of electron       7.9999994 magnetization
 keeping initial charge density in first step

 Maximum index for augmentation-charges         3319 (set IRDMAX)

 First call to EWALD:  gamma=   0.518
 Maximum number of real-space cells 3x 3x 3
 Maximum number of reciprocal cells 3x 3x 3

--------------------------------------- Iteration      1(   1)  ---------------------------------------

 eigenvalue-minimisations  :  2328
 total energy-change (2. order) : 0.1374224E+01  (-0.2442189E+03)
 number of electron       7.9999994 magnetization
 augmentation part        7.9999994 magnetization

 Free energy of the ion-electron system (eV)
  alpha Z        PSCENC =         3.36414203
  Ewald energy   TEWEN  =      -228.56352493
  -Hartree energ DENC   =       -14.91334938
  -exchange      EXHF   =         0.00000000
  -V(xc)+E(xc)   XCENC  =       -17.96005859
  PAW double counting   =        74.49605614      -39.53572067
  entropy T*S    EENTRO =        -0.01005739
  eigenvalues    EBANDS =        18.36705136
  atomic energy  EATOM  =       206.12968587
  Solvation  Ediel_sol  =         0.00000000
  free energy    TOTEN  =         1.37422444 eV

  energy without entropy =        1.38428183  energy(sigma->0) =        1.37925313

[...]

 eigenvalue-minimisations  :  3648
 total energy-change (2. order) :-0.1207583E+02  (-0.1153886E+02)
 number of electron       7.9999994 magnetization
 augmentation part        7.9999994 magnetization

[...]

--------------------------------------- Iteration      1(   6)  ---------------------------------------

 eigenvalue-minimisations  :  3856
 total energy-change (2. order) :-0.3363994E-09  (-0.6373036E-09)
 number of electron       7.9999994 magnetization
 augmentation part        7.9999994 magnetization

 Free energy of the ion-electron system (eV)
  alpha Z        PSCENC =         3.36414203
  Ewald energy   TEWEN  =      -228.56352493
  -Hartree energ DENC   =       -14.91334938
  -exchange      EXHF   =         0.00000000
  -V(xc)+E(xc)   XCENC  =       -17.96005859
  PAW double counting   =        74.49605614      -39.53572067
  entropy T*S    EENTRO =        -0.00008251
  eigenvalues    EBANDS =         6.14455926
  atomic energy  EATOM  =       206.12968587
  Solvation  Ediel_sol  =         0.00000000
  free energy    TOTEN  =       -10.83829279 eV

  energy without entropy =      -10.83821028  energy(sigma->0) =      -10.83825153

 average (electrostatic) potential at core
  the test charge radii are     0.9892
  (the norm of the test charge is              1.0000)
       1 -83.2457       2 -83.2457

 E-fermi :   6.1193     XC(G=0):  -9.4110     alpha+bet :-11.9845

 k-point     1 :       0.0000    0.0000    0.0000
  band No.  band energies     occupation
      1      -6.1306      2.00000
      2       5.8331      1.95705
      3       5.8331      1.95702
      4       5.8331      1.95702
      5       8.4012      0.00000
      6       8.4012      0.00000
      7       8.4012      0.00000
      8       9.2080      0.00000

[...]

 k-point   145 :      -0.2500    0.5000    0.2500
  band No.  band energies     occupation
      1      -1.8205      2.00000
      2      -1.8205      2.00000
      3       1.9795      2.00000
      4       1.9795      2.00000
      5      10.1069      0.00000
      6      10.1070      0.00000
      7      10.8447      0.00000
      8      10.8447      0.00000

 soft charge-density along one line, spin component           1
         0         1         2         3         4         5         6         7         8         9
 total charge-density along one line

------------------------ aborting loop because EDIFF is reached ----------------------------------------

  FORCE on cell =-STRESS in cart. coord.  units (eV):
  Direction    XX          YY          ZZ          XY          YZ          ZX
  Alpha Z     3.36414     3.36414     3.36414
  Ewald     -76.18788   -76.18788   -76.18788     0.00000    -0.00000     0.00000
  Hartree     4.97093     4.97093     4.97093    -0.00000    -0.00000    -0.00000
  E(xc)     -25.37681   -25.37681   -25.37681     0.00001     0.00001     0.00001
  Local     -29.26105   -29.26105   -29.26105     0.00004     0.00004     0.00004
  n-local    78.79161    80.34586    74.53922     2.25598    -1.33743     0.51775
  augment   -11.64726   -11.64726   -11.64726    -0.00004    -0.00004    -0.00004
  Kinetic    58.97237    56.04235    55.12091     3.58300    -0.63960     1.05899
  Fock        0.00000     0.00000     0.00000     0.00000     0.00000     0.00000
  Total       0.46619     0.46619     0.46619     0.00000     0.00000    -0.00000
  in kB      18.66091    18.66091    18.66091     0.00000     0.00000    -0.00000

 VOLUME and BASIS-vectors are now :
  energy-cutoff  :      300.00
  volume of cell :       40.03
      direct lattice vectors                 reciprocal lattice vectors
     0.000000000  2.715000000  2.715000000    -0.184162063  0.184162063  0.184162063
     2.715000000  0.000000000  2.715000000     0.184162063 -0.184162063  0.184162063
     2.715000000  2.715000000  0.000000000     0.184162063  0.184162063 -0.184162063

  length of vectors
     3.839589822  3.839589822  3.839589822     0.318978049  0.318978049  0.318978049

 FORCES acting on ions
    electron-ion (+dipol)            ewald-force                    non-local-force                 convergence-correction
   0.682E-05 0.682E-05 0.682E-05   0.132E-14 -.451E-14 -.305E-14   -.486E-16 -.694E-16 -.555E-16   -.182E-08 -.182E-08 -.182E-08
   -.682E-05 -.682E-05 -.682E-05   -.113E-14 0.493E-14 0.317E-14   0.625E-16 0.763E-16 0.382E-16   0.182E-08 0.182E-08 0.182E-08
   0.820E-16 0.220E-14 -.448E-14   0.187E-15 0.422E-15 0.120E-15   0.139E-16 0.694E-17 -.173E-16   -.271E-13 0.263E-13 -.381E-15

 POSITION                                       TOTAL-FORCE (eV/Angst)
      0.00000      0.00000      0.00000         0.000000      0.000000      0.000000
      1.35750      1.35750      1.35750        -0.000000     -0.000000     -0.000000
    total drift:                               -0.000000      0.000000     -0.000000

  FREE ENERGIE OF THE ION-ELECTRON SYSTEM (eV)
  free  energy   TOTEN  =       -10.83829279 eV

  energy  without entropy=      -10.83821028  energy(sigma->0) =      -10.83825153

 writing wavefunctions