 vasp.5.4.4.18Apr17-6-g9f103f2a35 (build May 20 2018 16:52:39) complex

 executed on             LinuxIFC date 2022.09.19  16:54:30

 INCAR:
 POTCAR:   PAW Au 04Feb1998
 POTCAR:   PAW Au 04Feb1998
   VRHFIN =Au: s1d10

   TITEL  = PAW Au 04Feb1998
   POMASS =  196.966; ZVAL   =   11.000    mass and valenz
   ENMAX  =  229.869; ENMIN  =  172.402 eV
   QCUT   =   -4.110; QGAM   =    8.221    optimization parameters

   Description
     l     E      TYP  RCUT    TYP  RCUT
     2   .000     23  2.500
     2   .000     23  2.500
     0   .000     23  2.500
     0   .000     23  2.500
     1  -.200     23  2.500
     1   .000     23  2.500
     3   .000      7   .000

 PAW Au 04Feb1998                       :

 POSCAR: Au bulk FCC
  positions in direct lattice
 exchange correlation table for  LEXCH =        2
   RHO(1)=    0.500       N(1)  =     2000
   RHO(2)=  100.500       N(2)  =     4000

 ion  position               nearest neighbor table
   1  0.000  0.000  0.000-

  LATTYP: Found a face centered cubic cell.
 ALAT       =     4.0800000000

  Lattice vectors:

 A1 = (   0.0000000000,   2.0400000000,   2.0400000000)
 A2 = (   2.0400000000,   0.0000000000,   2.0400000000)
 A3 = (   2.0400000000,   2.0400000000,   0.0000000000)

Analysis of symmetry for initial positions (statically):
 Subroutine PRICEL returns:
 Original cell was already a primitive cell.

 Routine SETGRP: Setting up the symmetry group for a
 face centered cubic supercell.

 Subroutine GETGRP returns: Found 48 space group operations
 (whereof 48 operations were pure point group operations)
 out of a pool of 48 trial point group operations.

The static configuration has the point symmetry O_h .

Analysis of symmetry for dynamics (positions and initial velocities):
 Subroutine PRICEL returns:
 Original cell was already a primitive cell.

 Routine SETGRP: Setting up the symmetry group for a
 face centered cubic supercell.

 Subroutine GETGRP returns: Found 48 space group operations
 (whereof 48 operations were pure point group operations)
 out of a pool of 48 trial point group operations.

The dynamic configuration has the point symmetry O_h .

 Subroutine INISYM returns: Found 48 space group operations
 (whereof 48 operations are pure point group operations),
 and found     1 'primitive' translations

 KPOINTS: 10x10x10

Automatic generation of k-mesh.
Space group operators:
 irot       det(A)        alpha          n_x          n_y          n_z        tau_x        tau_y        tau_z
    1     1.000000     0.000001     1.000000     0.000000     0.000000     0.000000     0.000000     0.000000
    2    -1.000000     0.000001     1.000000     0.000000     0.000000     0.000000     0.000000     0.000000
    3     1.000000   120.000000    -0.577350    -0.577350    -0.577350     0.000000     0.000000     0.000000
    4    -1.000000   120.000000    -0.577350    -0.577350    -0.577350     0.000000     0.000000     0.000000
    5     1.000000   120.000000     0.577350     0.577350     0.577350     0.000000     0.000000     0.000000
    6    -1.000000   120.000000     0.577350     0.577350     0.577350     0.000000     0.000000     0.000000
    7     1.000000    90.000000     0.000000     0.000000    -1.000000     0.000000     0.000000     0.000000
    8    -1.000000    90.000000     0.000000     0.000000    -1.000000     0.000000     0.000000     0.000000
    9     1.000000   180.000000     0.000000     0.707107     0.707107     0.000000     0.000000     0.000000
   10    -1.000000   180.000000     0.000000     0.707107     0.707107     0.000000     0.000000     0.000000
   11     1.000000    90.000000     0.000000     1.000000     0.000000     0.000000     0.000000     0.000000
   12    -1.000000    90.000000     0.000000     1.000000     0.000000     0.000000     0.000000     0.000000
   13     1.000000   180.000000     0.000000     0.000000     1.000000     0.000000     0.000000     0.000000
   14    -1.000000   180.000000     0.000000     0.000000     1.000000     0.000000     0.000000     0.000000
   15     1.000000   120.000000    -0.577350     0.577350     0.577350     0.000000     0.000000     0.000000
   16    -1.000000   120.000000    -0.577350     0.577350     0.577350     0.000000     0.000000     0.000000
   17     1.000000   120.000000    -0.577350     0.577350    -0.577350     0.000000     0.000000     0.000000
   18    -1.000000   120.000000    -0.577350     0.577350    -0.577350     0.000000     0.000000     0.000000
   19     1.000000    90.000000     0.000000     0.000000     1.000000     0.000000     0.000000     0.000000
   20    -1.000000    90.000000     0.000000     0.000000     1.000000     0.000000     0.000000     0.000000
   21     1.000000    90.000000    -1.000000     0.000000     0.000000     0.000000     0.000000     0.000000
   22    -1.000000    90.000000    -1.000000     0.000000     0.000000     0.000000     0.000000     0.000000
   23     1.000000   180.000000     0.707107     0.000000     0.707107     0.000000     0.000000     0.000000
   24    -1.000000   180.000000     0.707107     0.000000     0.707107     0.000000     0.000000     0.000000
   25     1.000000   120.000000     0.577350    -0.577350     0.577350     0.000000     0.000000     0.000000
   26    -1.000000   120.000000     0.577350    -0.577350     0.577350     0.000000     0.000000     0.000000
   27     1.000000   120.000000    -0.577350    -0.577350     0.577350     0.000000     0.000000     0.000000
   28    -1.000000   120.000000    -0.577350    -0.577350     0.577350     0.000000     0.000000     0.000000
   29     1.000000   180.000000     1.000000     0.000000     0.000000     0.000000     0.000000     0.000000
   30    -1.000000   180.000000     1.000000     0.000000     0.000000     0.000000     0.000000     0.000000
   31     1.000000    90.000000     0.000000    -1.000000     0.000000     0.000000     0.000000     0.000000
   32    -1.000000    90.000000     0.000000    -1.000000     0.000000     0.000000     0.000000     0.000000
   33     1.000000   180.000000     0.707107     0.707107     0.000000     0.000000     0.000000     0.000000
   34    -1.000000   180.000000     0.707107     0.707107     0.000000     0.000000     0.000000     0.000000
   35     1.000000    90.000000     1.000000     0.000000     0.000000     0.000000     0.000000     0.000000
   36    -1.000000    90.000000     1.000000     0.000000     0.000000     0.000000     0.000000     0.000000
   37     1.000000   120.000000     0.577350    -0.577350    -0.577350     0.000000     0.000000     0.000000
   38    -1.000000   120.000000     0.577350    -0.577350    -0.577350     0.000000     0.000000     0.000000
   39     1.000000   180.000000     0.000000     1.000000     0.000000     0.000000     0.000000     0.000000
   40    -1.000000   180.000000     0.000000     1.000000     0.000000     0.000000     0.000000     0.000000
   41     1.000000   120.000000     0.577350     0.577350    -0.577350     0.000000     0.000000     0.000000
   42    -1.000000   120.000000     0.577350     0.577350    -0.577350     0.000000     0.000000     0.000000
   43     1.000000   180.000000     0.000000    -0.707107     0.707107     0.000000     0.000000     0.000000
   44    -1.000000   180.000000     0.000000    -0.707107     0.707107     0.000000     0.000000     0.000000
   45     1.000000   180.000000     0.707107    -0.707107     0.000000     0.000000     0.000000     0.000000
   46    -1.000000   180.000000     0.707107    -0.707107     0.000000     0.000000     0.000000     0.000000
   47     1.000000   180.000000     0.707107     0.000000    -0.707107     0.000000     0.000000     0.000000
   48    -1.000000   180.000000     0.707107     0.000000    -0.707107     0.000000     0.000000     0.000000

 Subroutine IBZKPT returns following result:

 Found    110 irreducible k-points:

 Following reciprocal coordinates:
            Coordinates               Weight
  0.050000  0.050000  0.050000     96.000000
  0.150000  0.050000  0.050000    288.000000
  0.250000  0.050000  0.050000    288.000000
  0.350000  0.050000  0.050000    288.000000
  0.450000  0.050000  0.050000    288.000000
 -0.450000  0.050000  0.050000    288.000000
 -0.350000  0.050000  0.050000    288.000000
 -0.250000  0.050000  0.050000    288.000000
 -0.150000  0.050000  0.050000    288.000000
 -0.050000  0.050000  0.050000    288.000000
  0.150000  0.150000  0.050000    288.000000
  0.250000  0.150000  0.050000    576.000000
  0.350000  0.150000  0.050000    576.000000
  0.450000  0.150000  0.050000    576.000000
 -0.450000  0.150000  0.050000    576.000000
 -0.350000  0.150000  0.050000    576.000000
 -0.250000  0.150000  0.050000    576.000000
 -0.150000  0.150000  0.050000    576.000000
 -0.050000  0.150000  0.050000    576.000000
  0.250000  0.250000  0.050000    288.000000
  0.350000  0.250000  0.050000    576.000000
  0.450000  0.250000  0.050000    576.000000
 -0.450000  0.250000  0.050000    576.000000
 -0.350000  0.250000  0.050000    576.000000
 -0.250000  0.250000  0.050000    576.000000
 -0.150000  0.250000  0.050000    576.000000
 -0.050000  0.250000  0.050000    576.000000
  0.350000  0.350000  0.050000    288.000000
  0.450000  0.350000  0.050000    576.000000
 -0.450000  0.350000  0.050000    576.000000
 -0.350000  0.350000  0.050000    576.000000
 -0.250000  0.350000  0.050000    576.000000
 -0.150000  0.350000  0.050000    576.000000
 -0.050000  0.350000  0.050000    576.000000
  0.450000  0.450000  0.050000    288.000000
 -0.450000  0.450000  0.050000    576.000000
 -0.350000  0.450000  0.050000    576.000000
 -0.250000  0.450000  0.050000    576.000000
 -0.150000  0.450000  0.050000    576.000000
 -0.050000  0.450000  0.050000    576.000000
 -0.450000 -0.450000  0.050000    288.000000
 -0.350000 -0.450000  0.050000    576.000000
 -0.250000 -0.450000  0.050000    576.000000
 -0.150000 -0.450000  0.050000    576.000000
 -0.350000 -0.350000  0.050000    288.000000
 -0.250000 -0.350000  0.050000    576.000000
 -0.150000 -0.350000  0.050000    576.000000
 -0.250000 -0.250000  0.050000    288.000000
 -0.150000 -0.250000  0.050000    576.000000
 -0.150000 -0.150000  0.050000    288.000000
  0.150000  0.150000  0.150000     96.000000
  0.250000  0.150000  0.150000    288.000000
  0.350000  0.150000  0.150000    288.000000
  0.450000  0.150000  0.150000    288.000000
 -0.450000  0.150000  0.150000    288.000000
 -0.350000  0.150000  0.150000    288.000000
 -0.250000  0.150000  0.150000    288.000000
 -0.150000  0.150000  0.150000    288.000000
  0.250000  0.250000  0.150000    288.000000
  0.350000  0.250000  0.150000    576.000000
[...]
 -0.350000  0.450000  0.250000    576.000000
 -0.250000  0.450000  0.250000    576.000000
 -0.450000 -0.450000  0.250000    288.000000
 -0.350000 -0.450000  0.250000    576.000000
 -0.350000 -0.350000  0.250000    288.000000
  0.350000  0.350000  0.350000     96.000000
  0.450000  0.350000  0.350000    288.000000
 -0.450000  0.350000  0.350000    288.000000
 -0.350000  0.350000  0.350000    288.000000
  0.450000  0.450000  0.350000    288.000000
 -0.450000  0.450000  0.350000    576.000000
 -0.350000  0.450000  0.350000    576.000000
[...]
   0.15000000  0.05000000  0.05000000       0.006
   0.25000000  0.05000000  0.05000000       0.006
   0.35000000  0.05000000  0.05000000       0.006
   0.45000000  0.05000000  0.05000000       0.006
  -0.45000000  0.05000000  0.05000000       0.006
  -0.35000000  0.05000000  0.05000000       0.006
  -0.25000000  0.05000000  0.05000000       0.006
  -0.15000000  0.05000000  0.05000000       0.006
  -0.05000000  0.05000000  0.05000000       0.006
   0.15000000  0.15000000  0.05000000       0.006
   0.25000000  0.15000000  0.05000000       0.012
   0.35000000  0.15000000  0.05000000       0.012
   0.45000000  0.15000000  0.05000000       0.012
  -0.45000000  0.15000000  0.05000000       0.012
  -0.35000000  0.15000000  0.05000000       0.012
  -0.25000000  0.15000000  0.05000000       0.012
  -0.15000000  0.15000000  0.05000000       0.012
  -0.05000000  0.15000000  0.05000000       0.012
   0.25000000  0.25000000  0.05000000       0.006
   0.35000000  0.25000000  0.05000000       0.012
   0.45000000  0.25000000  0.05000000       0.012
  -0.45000000  0.25000000  0.05000000       0.012
  -0.35000000  0.25000000  0.05000000       0.012
  -0.25000000  0.25000000  0.05000000       0.012
  -0.15000000  0.25000000  0.05000000       0.012
  -0.05000000  0.25000000  0.05000000       0.012
   0.35000000  0.35000000  0.05000000       0.006
   0.45000000  0.35000000  0.05000000       0.012
  -0.45000000  0.35000000  0.05000000       0.012
  -0.35000000  0.35000000  0.05000000       0.012
  -0.25000000  0.35000000  0.05000000       0.012
  -0.15000000  0.35000000  0.05000000       0.012
  -0.05000000  0.35000000  0.05000000       0.012
   0.45000000  0.45000000  0.05000000       0.006
  -0.45000000  0.45000000  0.05000000       0.012
  -0.35000000  0.45000000  0.05000000       0.012
  -0.25000000  0.45000000  0.05000000       0.012
  -0.15000000  0.45000000  0.05000000       0.012
  -0.05000000  0.45000000  0.05000000       0.012
  -0.45000000 -0.45000000  0.05000000       0.006
  -0.35000000 -0.45000000  0.05000000       0.012
  -0.25000000 -0.45000000  0.05000000       0.012
  -0.15000000 -0.45000000  0.05000000       0.012
  -0.35000000 -0.35000000  0.05000000       0.006
  -0.25000000 -0.35000000  0.05000000       0.012
  -0.15000000 -0.35000000  0.05000000       0.012
  -0.25000000 -0.25000000  0.05000000       0.006
  -0.15000000 -0.25000000  0.05000000       0.012
  -0.15000000 -0.15000000  0.05000000       0.006
   0.15000000  0.15000000  0.15000000       0.002
   0.25000000  0.15000000  0.15000000       0.006
   0.35000000  0.15000000  0.15000000       0.006
   0.45000000  0.15000000  0.15000000       0.006
  -0.45000000  0.15000000  0.15000000       0.006
  -0.35000000  0.15000000  0.15000000       0.006
  -0.25000000  0.15000000  0.15000000       0.006
  -0.15000000  0.15000000  0.15000000       0.006
   0.25000000  0.25000000  0.15000000       0.006
   0.35000000  0.25000000  0.15000000       0.012
[...]
  -0.35000000  0.45000000  0.25000000       0.012
  -0.25000000  0.45000000  0.25000000       0.012
  -0.45000000 -0.45000000  0.25000000       0.006
  -0.35000000 -0.45000000  0.25000000       0.012
  -0.35000000 -0.35000000  0.25000000       0.006
   0.35000000  0.35000000  0.35000000       0.002
   0.45000000  0.35000000  0.35000000       0.006
  -0.45000000  0.35000000  0.35000000       0.006
  -0.35000000  0.35000000  0.35000000       0.006
   0.45000000  0.45000000  0.35000000       0.006
  -0.45000000  0.45000000  0.35000000       0.012
  -0.35000000  0.45000000  0.35000000       0.012
  -0.45000000 -0.45000000  0.35000000       0.006
   0.45000000  0.45000000  0.45000000       0.002
  -0.45000000  0.45000000  0.45000000       0.006

 position of ions in fractional coordinates (direct lattice)
   0.00000000  0.00000000  0.00000000

 position of ions in cartesian coordinates  (Angst):
   0.00000000  0.00000000  0.00000000

 k-point  1 :   0.0500 0.0500 0.0500  plane waves:     181
 k-point  2 :   0.1500 0.0500 0.0500  plane waves:     184
 k-point  3 :   0.2500 0.0500 0.0500  plane waves:     198
 k-point  4 :   0.3500 0.0500 0.0500  plane waves:     200
 k-point  5 :   0.4500 0.0500 0.0500  plane waves:     198
 k-point  6 :  -0.4500 0.0500 0.0500  plane waves:     200
 k-point  7 :  -0.3500 0.0500 0.0500  plane waves:     199
 k-point  8 :  -0.2500 0.0500 0.0500  plane waves:     198
 k-point  9 :  -0.1500 0.0500 0.0500  plane waves:     192
 k-point 10 :  -0.0500 0.0500 0.0500  plane waves:     181
 k-point 11 :   0.1500 0.1500 0.0500  plane waves:     190
 k-point 12 :   0.2500 0.1500 0.0500  plane waves:     196
 k-point 13 :   0.3500 0.1500 0.0500  plane waves:     200
 k-point 14 :   0.4500 0.1500 0.0500  plane waves:     200
 k-point 15 :  -0.4500 0.1500 0.0500  plane waves:     200
 k-point 16 :  -0.3500 0.1500 0.0500  plane waves:     200
 k-point 17 :  -0.2500 0.1500 0.0500  plane waves:     201
 k-point 18 :  -0.1500 0.1500 0.0500  plane waves:     200
 k-point 19 :  -0.0500 0.1500 0.0500  plane waves:     192
 k-point 20 :   0.2500 0.2500 0.0500  plane waves:     200
 k-point 21 :   0.3500 0.2500 0.0500  plane waves:     202
 k-point 22 :   0.4500 0.2500 0.0500  plane waves:     197
 k-point 23 :  -0.4500 0.2500 0.0500  plane waves:     202
 k-point 24 :  -0.3500 0.2500 0.0500  plane waves:     201
 k-point 25 :  -0.2500 0.2500 0.0500  plane waves:     199
 k-point 26 :  -0.1500 0.2500 0.0500  plane waves:     203
 k-point 27 :  -0.0500 0.2500 0.0500  plane waves:     198
 k-point 28 :   0.3500 0.3500 0.0500  plane waves:     202
 k-point 29 :   0.4500 0.3500 0.0500  plane waves:     204
 k-point 30 :  -0.4500 0.3500 0.0500  plane waves:     203
 k-point 31 :  -0.3500 0.3500 0.0500  plane waves:     202
 k-point 32 :  -0.2500 0.3500 0.0500  plane waves:     199
 k-point 33 :  -0.1500 0.3500 0.0500  plane waves:     201
 k-point 34 :  -0.0500 0.3500 0.0500  plane waves:     199
 k-point 35 :   0.4500 0.4500 0.0500  plane waves:     201
 k-point 36 :  -0.4500 0.4500 0.0500  plane waves:     204
 k-point 37 :  -0.3500 0.4500 0.0500  plane waves:     205
 k-point 38 :  -0.2500 0.4500 0.0500  plane waves:     201
 k-point 39 :  -0.1500 0.4500 0.0500  plane waves:     202
 k-point 40 :  -0.0500 0.4500 0.0500  plane waves:     199
 k-point 41 :  -0.4500-0.4500 0.0500  plane waves:     202
 k-point 42 :  -0.3500-0.4500 0.0500  plane waves:     203
 k-point 43 :  -0.2500-0.4500 0.0500  plane waves:     201
 k-point 44 :  -0.1500-0.4500 0.0500  plane waves:     198
 k-point 45 :  -0.3500-0.3500 0.0500  plane waves:     202
 k-point 46 :  -0.2500-0.3500 0.0500  plane waves:     204
 k-point 47 :  -0.1500-0.3500 0.0500  plane waves:     201
 k-point 48 :  -0.2500-0.2500 0.0500  plane waves:     202
 k-point 49 :  -0.1500-0.2500 0.0500  plane waves:     199
 k-point 50 :  -0.1500-0.1500 0.0500  plane waves:     194
 k-point 51 :   0.1500 0.1500 0.1500  plane waves:     193
 k-point 52 :   0.2500 0.1500 0.1500  plane waves:     194
 k-point 53 :   0.3500 0.1500 0.1500  plane waves:     200
 k-point 54 :   0.4500 0.1500 0.1500  plane waves:     199
 k-point 55 :  -0.4500 0.1500 0.1500  plane waves:     203
 k-point 56 :  -0.3500 0.1500 0.1500  plane waves:     203
 k-point 57 :  -0.2500 0.1500 0.1500  plane waves:     200
 k-point 58 :  -0.1500 0.1500 0.1500  plane waves:     196
 k-point 59 :   0.2500 0.2500 0.1500  plane waves:     196
 k-point 60 :   0.3500 0.2500 0.1500  plane waves:     198
[...]
 k-point 85 :   0.4500 0.2500 0.2500  plane waves:     202
 k-point 86 :  -0.4500 0.2500 0.2500  plane waves:     198
 k-point 87 :  -0.3500 0.2500 0.2500  plane waves:     202
 k-point 88 :  -0.2500 0.2500 0.2500  plane waves:     204
 k-point 89 :   0.3500 0.3500 0.2500  plane waves:     198
 k-point 90 :   0.4500 0.3500 0.2500  plane waves:     200
 k-point 91 :  -0.4500 0.3500 0.2500  plane waves:     201
 k-point 92 :  -0.3500 0.3500 0.2500  plane waves:     200
 k-point 93 :  -0.2500 0.3500 0.2500  plane waves:     202
 k-point 94 :   0.4500 0.4500 0.2500  plane waves:     198
 k-point 95 :  -0.4500 0.4500 0.2500  plane waves:     200
 k-point 96 :  -0.3500 0.4500 0.2500  plane waves:     203
 k-point 97 :  -0.2500 0.4500 0.2500  plane waves:     203
 k-point 98 :  -0.4500-0.4500 0.2500  plane waves:     204
 k-point 99 :  -0.3500-0.4500 0.2500  plane waves:     203
 k-point ** :  -0.3500-0.3500 0.2500  plane waves:     202
 k-point ** :   0.3500 0.3500 0.3500  plane waves:     198
 k-point ** :   0.4500 0.3500 0.3500  plane waves:     199
 k-point ** :  -0.4500 0.3500 0.3500  plane waves:     200
 k-point ** :  -0.3500 0.3500 0.3500  plane waves:     204
 k-point ** :   0.4500 0.4500 0.3500  plane waves:     203
 k-point ** :  -0.4500 0.4500 0.3500  plane waves:     200
 k-point ** :  -0.3500 0.4500 0.3500  plane waves:     202
 k-point ** :  -0.4500-0.4500 0.3500  plane waves:     200
 k-point ** :   0.4500 0.4500 0.4500  plane waves:     201
 k-point ** :  -0.4500 0.4500 0.4500  plane waves:     203

 maximum and minimum number of plane-waves per node :       205      181

 maximum number of plane-waves:       205
 maximum index in each direction:
   IXMAX=    4   IYMAX=    4   IZMAX=    4
   IXMIN=   -4   IYMIN=   -4   IZMIN=   -4

 serial   3D FFT for wavefunctions
 parallel 3D FFT for charge:
    minimum data exchange during FFTs selected (reduces bandwidth)

 Broyden mixing: mesh for mixing (old mesh)
   NGX =  9   NGY =  9   NGZ =  9
  (NGX  = 24   NGY  = 24   NGZ  = 24)
  gives a total of    729 points

 initial charge density was supplied:
 charge density of overlapping atoms calculated
 number of electron      11.0000000 magnetization
 keeping initial charge density in first step

 Maximum index for augmentation-charges         6051 (set IRDMAX)

 First call to EWALD:  gamma=   0.690
 Maximum number of real-space cells 3x 3x 3
 Maximum number of reciprocal cells 3x 3x 3

--------------------------------------- Iteration      1(   1)  ---------------------------------------

 eigenvalue-minimisations  :  2501
 total energy-change (2. order) : 0.3384381E+02  (-0.4420843E+03)
 number of electron      11.0000000 magnetization
 augmentation part       11.0000000 magnetization

 Free energy of the ion-electron system (eV)
  alpha Z        PSCENC =       108.24217189
  Ewald energy   TEWEN  =      -978.98843183
  -Hartree energ DENC   =      -122.41063523
  -exchange      EXHF   =         0.00000000
  -V(xc)+E(xc)   XCENC  =        16.31854387
  PAW double counting   =       746.10209728     -725.46159323
  entropy T*S    EENTRO =        -0.00097231
  eigenvalues    EBANDS =        60.62121530
  atomic energy  EATOM  =       929.42141189
  Solvation  Ediel_sol  =         0.00000000
  free energy    TOTEN  =        33.84380764 eV

  energy without entropy =       33.84477995  energy(sigma->0) =       33.84413174

[...]

 eigenvalue-minimisations  :  2021
 total energy-change (2. order) :-0.3812675E+02  (-0.3494706E+02)
 number of electron      11.0000000 magnetization
 augmentation part       11.0000000 magnetization

[...]

 Broyden mixing:
  rms(total) = 0.31594E+00    rms(broyden)= 0.31592E+00
  rms(prec ) = 0.13103E+01
  weight for this iteration     100.00

[...]

 eigenvalues of (default mixing * dielectric matrix)
  average eigenvalue GAMMA=   1.2301
  1.2301

[...]

 eigenvalue-minimisations  :  2123
 total energy-change (2. order) :-0.2311364E-05  (-0.9516866E-07)
 number of electron      11.0000055 magnetization
 augmentation part        4.0002040 magnetization

 Broyden mixing:
  rms(total) = 0.52433E-04    rms(broyden)= 0.52355E-04
  rms(prec ) = 0.16719E-03
  weight for this iteration     100.00

 eigenvalues of (default mixing * dielectric matrix)
  average eigenvalue GAMMA=   1.6753
  2.6072  2.4546  1.0106  1.1803  1.1239

[...]

--------------------------------------- Iteration      1(  11)  ---------------------------------------

 eigenvalue-minimisations  :  1017
 total energy-change (2. order) : 0.1336389E-07  (-0.2477492E-08)
 number of electron      11.0000055 magnetization
 augmentation part        4.0002040 magnetization

 Free energy of the ion-electron system (eV)
  alpha Z        PSCENC =       108.24217189
  Ewald energy   TEWEN  =      -978.98843183
  -Hartree energ DENC   =      -111.24558043
  -exchange      EXHF   =         0.00000000
  -V(xc)+E(xc)   XCENC  =        15.74155890
  PAW double counting   =       752.44691659     -734.58671730
  entropy T*S    EENTRO =         0.00089692
  eigenvalues    EBANDS =        14.56842209
  atomic energy  EATOM  =       929.42141189
  Solvation  Ediel_sol  =         0.00000000
  free energy    TOTEN  =        -4.39935128 eV

  energy without entropy =       -4.40024820  energy(sigma->0) =       -4.39965025

 average (electrostatic) potential at core
  the test charge radii are     1.2098
  (the norm of the test charge is              1.0000)
       1 -45.7805

 E-fermi :   5.5542     XC(G=0): -13.0052     alpha+bet :-10.3291

 k-point     1 :       0.0500    0.0500    0.0500
  band No.  band energies     occupation
      1      -4.2844      2.00000
      2       0.8402      2.00000
      3       0.9006      2.00000
      4       0.9006      2.00000
      5       2.4067      2.00000
      6       2.4067      2.00000
      7      21.0204      0.00000
      8      24.1046      0.00000
      9      24.8743      0.00000

[...]

 k-point   110 :      -0.4500    0.4500    0.4500
  band No.  band energies     occupation
      1      -1.5416      2.00000
      2       0.6815      2.00000
      3       1.0314      2.00000
      4       2.5575      2.00000
      5       3.5487      2.00000
      6       5.8614     -0.05202
      7       8.7529     -0.00000
      8      20.2362      0.00000
      9      21.7433      0.00000

 soft charge-density along one line, spin component           1
         0         1         2         3         4         5         6         7         8         9
 total charge-density along one line

------------------------ aborting loop because EDIFF is reached ----------------------------------------

  FORCE on cell =-STRESS in cart. coord.  units (eV):
  Direction    XX          YY          ZZ          XY          YZ          ZX
  Alpha Z   108.24217   108.24217   108.24217
  Ewald    -326.32949  -326.32949  -326.32949     0.00000     0.00000     0.00000
  Hartree    37.08178    37.08178    37.08178    -0.00000    -0.00000    -0.00000
  E(xc)     -49.05242   -49.05242   -49.05242     0.00001     0.00001     0.00001
  Local      82.33363    82.33363    82.33363     0.00014     0.00014     0.00014
  n-local   -48.99260   -46.16727   -49.90182     0.59645    -0.66095     0.01413
  augment    42.47143    42.47143    42.47143    -0.00002    -0.00002    -0.00002
  Kinetic   153.27361   152.13461   154.32918    -0.41120     0.21543     0.01192
  Fock        0.00000     0.00000     0.00000     0.00000     0.00000     0.00000
  Total      -0.36100    -0.36100    -0.36100     0.00000     0.00000     0.00000
  in kB     -34.06374   -34.06374   -34.06374     0.00000     0.00000     0.00000

 VOLUME and BASIS-vectors are now :
  energy-cutoff  :      300.00
  volume of cell :       16.98
      direct lattice vectors                 reciprocal lattice vectors
     0.000000000  2.040000000  2.040000000    -0.245098039  0.245098039  0.245098039
     2.040000000  0.000000000  2.040000000     0.245098039 -0.245098039  0.245098039
     2.040000000  2.040000000  0.000000000     0.245098039  0.245098039 -0.245098039

  length of vectors
     2.884995667  2.884995667  2.884995667     0.424522257  0.424522257  0.424522257

 FORCES acting on ions
    electron-ion (+dipol)            ewald-force                    non-local-force                 convergence-correction
   0.276E-14 0.149E-14 -.111E-14   -.208E-15 0.128E-14 0.450E-14   0.000E+00 0.000E+00 0.517E-25   0.250E-14 -.418E-15 -.335E-15
   0.276E-14 0.149E-14 -.111E-14   -.208E-15 0.128E-14 0.450E-14   0.000E+00 0.000E+00 0.517E-25   0.250E-14 -.418E-15 -.335E-15

 POSITION                                       TOTAL-FORCE (eV/Angst)
      0.00000      0.00000      0.00000         0.000000     -0.000000      0.000000
    total drift:                                0.000000      0.000000      0.000000

  FREE ENERGIE OF THE ION-ELECTRON SYSTEM (eV)
  free  energy   TOTEN  =        -4.39935128 eV

  energy  without entropy=       -4.40024820  energy(sigma->0) =       -4.39965025

volume of typ            1:    83.8 %

total charge

# of ion       s       p       d       tot
    1        0.594   0.453   8.860   9.907

orbital moment (x)

[...]

orbital moment (y)

[...]

orbital moment (z)

# of ion     s             p             d             tot
    1     0.000000E+00 -0.430150E-09  0.266877E-09 -0.163273E-09