 vasp.5.4.4.18Apr17-6-g9f103f2a35 (build May 20 2018 16:52:39) complex

 executed on             LinuxIFC date 2022.11.17  21:34:43

 INCAR:
 POTCAR:    PAW Nb_pv 09Jan2002

 POTCAR:    PAW Nb_pv 09Jan2002
   VRHFIN =Nb: s1d4

   TITEL  = PAW Nb_pv 09Jan2002
   POMASS =   92.910; ZVAL   =   11.000    mass and valenz
   ENMAX  =  207.263; ENMIN  =  155.447 eV

  PAW Nb_pv 09Jan2002                   :

 POSCAR: sic16 Nb
  positions in direct lattice
 exchange correlation table for  LEXCH =        2
   RHO(1)=    0.500       N(1)  =     2000
   RHO(2)=  100.500       N(2)  =     4000

 ion  position               nearest neighbor table
   1  0.000  0.000  0.000-   2 2.86   4 2.86   6 2.86   8 2.86  10 2.86  12 2.86  14 2.86  16 2.86
                             7 3.30   5 3.30   3 3.30   7 3.30   5 3.30   3 3.30
   2  0.250  0.250  0.250-   1 2.86   3 2.86   5 2.86   7 2.86   9 2.86  11 2.86  13 2.86  15 2.86
                             4 3.30   8 3.30   6 3.30   8 3.30   6 3.30   4 3.30
   3  0.500  0.000  0.000-   2 2.86   4 2.86   6 2.86   8 2.86  10 2.86  12 2.86  14 2.86  16 2.86
                            13 3.30   1 3.30   9 3.30  13 3.30   9 3.30   1 3.30
   4  0.750  0.250  0.250-   1 2.86   3 2.86   5 2.86   7 2.86   9 2.86  11 2.86  13 2.86  15 2.86
                            10 3.30  14 3.30   2 3.30  14 3.30  10 3.30   2 3.30
   5  0.000  0.500  0.000-   2 2.86   4 2.86   6 2.86   8 2.86  10 2.86  12 2.86  14 2.86  16 2.86
                             9 3.30   1 3.30  11 3.30  11 3.30   1 3.30   9 3.30
   6  0.250  0.750  0.250-   1 2.86   3 2.86   5 2.86   7 2.86   9 2.86  11 2.86  13 2.86  15 2.86
                            12 3.30  10 3.30   2 3.30  12 3.30   2 3.30  10 3.30
   7  0.000  0.000  0.500-   2 2.86   4 2.86   6 2.86   8 2.86  10 2.86  12 2.86  14 2.86  16 2.86
                            13 3.30  11 3.30   1 3.30   1 3.30  11 3.30  13 3.30
   8  0.250  0.250  0.750-   1 2.86   3 2.86   5 2.86   7 2.86   9 2.86  11 2.86  13 2.86  15 2.86
                             2 3.30  14 3.30  12 3.30   2 3.30  12 3.30  14 3.30
   9  0.500  0.500  0.000-   2 2.86   4 2.86   6 2.86   8 2.86  10 2.86  12 2.86  14 2.86  16 2.86
                             3 3.30  15 3.30   5 3.30  15 3.30   3 3.30   5 3.30
  10  0.750  0.750  0.250-   1 2.86   3 2.86   5 2.86   7 2.86   9 2.86  11 2.86  13 2.86  15 2.86
                             6 3.30   4 3.30  16 3.30  16 3.30   4 3.30   6 3.30
  11  0.000  0.500  0.500-   2 2.86   4 2.86   6 2.86   8 2.86  10 2.86  12 2.86  14 2.86  16 2.86
                             7 3.30  15 3.30   5 3.30   5 3.30   7 3.30  15 3.30
  12  0.250  0.750  0.750-   1 2.86   3 2.86   5 2.86   7 2.86   9 2.86  11 2.86  13 2.86  15 2.86
                             6 3.30   8 3.30  16 3.30   6 3.30   8 3.30  16 3.30
  13  0.500  0.000  0.500-   2 2.86   4 2.86   6 2.86   8 2.86  10 2.86  12 2.86  14 2.86  16 2.86
                             7 3.30  15 3.30   3 3.30   3 3.30  15 3.30   7 3.30
  14  0.750  0.250  0.750-   1 2.86   3 2.86   5 2.86   7 2.86   9 2.86  11 2.86  13 2.86  15 2.86
                             4 3.30   8 3.30  16 3.30   4 3.30  16 3.30   8 3.30
  15  0.500  0.500  0.500-   2 2.86   4 2.86   6 2.86   8 2.86  10 2.86  12 2.86  14 2.86  16 2.86
                            13 3.30  11 3.30   9 3.30   9 3.30  13 3.30  11 3.30
  16  0.750  0.750  0.750-   1 2.86   3 2.86   5 2.86   7 2.86   9 2.86  11 2.86  13 2.86  15 2.86
                            10 3.30  14 3.30  12 3.30  10 3.30  14 3.30  12 3.30

  LATTYP: Found a simple cubic cell.
 ALAT       =     6.6016000000

  Lattice vectors:

 A1 = (   6.6016000000,   0.0000000000,   0.0000000000)
 A2 = (   0.0000000000,   6.6016000000,   0.0000000000)
 A3 = (   0.0000000000,   0.0000000000,   6.6016000000)

Analysis of symmetry for initial positions (statically):
 Subroutine PRICEL returns following result:

  LATTYP: Found a body centered cubic cell.
 ALAT       =     3.3008000000

[...]

  16 primitive cells build up your supercell.

 Routine SETGRP: Setting up the symmetry group for a
 simple cubic supercell.

 Subroutine GETGRP returns: Found 48 space group operations
 (whereof 48 operations were pure point group operations)
 out of a pool of 48 trial point group operations.

The static configuration has the point symmetry O_h .

Analysis of symmetry for dynamics (positions and initial velocities):
 Subroutine PRICEL returns following result:

  LATTYP: Found a body centered cubic cell.
 ALAT       =     3.3008000000

  Lattice vectors:

 A1 = (   1.6504000000,   1.6504000000,   1.6504000000)
 A2 = (   1.6504000000,  -1.6504000000,  -1.6504000000)
 A3 = (  -1.6504000000,   1.6504000000,  -1.6504000000)

  16 primitive cells build up your supercell.

 Routine SETGRP: Setting up the symmetry group for a
 simple cubic supercell.

 Subroutine GETGRP returns: Found 48 space group operations
 (whereof 48 operations were pure point group operations)
 out of a pool of 48 trial point group operations.

The dynamic configuration has the point symmetry O_h .

 Subroutine INISYM returns: Found 48 space group operations
 (whereof 48 operations are pure point group operations),
 and found    16 'primitive' translations

 KPOINTS: 10*10*10

Automatic generation of k-mesh.
Space group operators:
 irot       det(A)        alpha          n_x          n_y          n_z        tau_x        tau_y        tau_z
    1     1.000000     0.000000     1.000000     0.000000     0.000000     0.000000     0.000000     0.000000
    2    -1.000000     0.000000     1.000000     0.000000     0.000000     0.000000     0.000000     0.000000
    3     1.000000   120.000000    -0.577350    -0.577350    -0.577350     0.000000     0.000000     0.000000
    4    -1.000000   120.000000    -0.577350    -0.577350    -0.577350     0.000000     0.000000     0.000000
    5     1.000000   120.000000     0.577350     0.577350     0.577350     0.000000     0.000000     0.000000
    6    -1.000000   120.000000     0.577350     0.577350     0.577350     0.000000     0.000000     0.000000
    7     1.000000    90.000000     0.000000     0.000000    -1.000000     0.000000     0.000000     0.000000
    8    -1.000000    90.000000     0.000000     0.000000    -1.000000     0.000000     0.000000     0.000000
    9     1.000000   180.000000     0.000000     0.707107     0.707107     0.000000     0.000000     0.000000
   10    -1.000000   180.000000     0.000000     0.707107     0.707107     0.000000     0.000000     0.000000
   11     1.000000    90.000000     0.000000     1.000000     0.000000     0.000000     0.000000     0.000000
   12    -1.000000    90.000000     0.000000     1.000000     0.000000     0.000000     0.000000     0.000000
   13     1.000000   180.000000     0.000000     0.000000     1.000000     0.000000     0.000000     0.000000
   14    -1.000000   180.000000     0.000000     0.000000     1.000000     0.000000     0.000000     0.000000
   15     1.000000   120.000000    -0.577350     0.577350     0.577350     0.000000     0.000000     0.000000
   16    -1.000000   120.000000    -0.577350     0.577350     0.577350     0.000000     0.000000     0.000000
   17     1.000000   120.000000    -0.577350     0.577350    -0.577350     0.000000     0.000000     0.000000
   18    -1.000000   120.000000    -0.577350     0.577350    -0.577350     0.000000     0.000000     0.000000
   19     1.000000    90.000000     0.000000     0.000000     1.000000     0.000000     0.000000     0.000000
   20    -1.000000    90.000000     0.000000     0.000000     1.000000     0.000000     0.000000     0.000000
   21     1.000000    90.000000    -1.000000     0.000000     0.000000     0.000000     0.000000     0.000000
   22    -1.000000    90.000000    -1.000000     0.000000     0.000000     0.000000     0.000000     0.000000
   23     1.000000   180.000000     0.707107     0.000000     0.707107     0.000000     0.000000     0.000000
   24    -1.000000   180.000000     0.707107     0.000000     0.707107     0.000000     0.000000     0.000000
   25     1.000000   120.000000     0.577350    -0.577350     0.577350     0.000000     0.000000     0.000000
   26    -1.000000   120.000000     0.577350    -0.577350     0.577350     0.000000     0.000000     0.000000
   27     1.000000   120.000000    -0.577350    -0.577350     0.577350     0.000000     0.000000     0.000000
   28    -1.000000   120.000000    -0.577350    -0.577350     0.577350     0.000000     0.000000     0.000000
   29     1.000000   180.000000     1.000000     0.000000     0.000000     0.000000     0.000000     0.000000
   30    -1.000000   180.000000     1.000000     0.000000     0.000000     0.000000     0.000000     0.000000
   31     1.000000    90.000000     0.000000    -1.000000     0.000000     0.000000     0.000000     0.000000
   32    -1.000000    90.000000     0.000000    -1.000000     0.000000     0.000000     0.000000     0.000000
   33     1.000000   180.000000     0.707107     0.707107     0.000000     0.000000     0.000000     0.000000
   34    -1.000000   180.000000     0.707107     0.707107     0.000000     0.000000     0.000000     0.000000
   35     1.000000    90.000000     1.000000     0.000000     0.000000     0.000000     0.000000     0.000000
   36    -1.000000    90.000000     1.000000     0.000000     0.000000     0.000000     0.000000     0.000000
   37     1.000000   120.000000     0.577350    -0.577350    -0.577350     0.000000     0.000000     0.000000
   38    -1.000000   120.000000     0.577350    -0.577350    -0.577350     0.000000     0.000000     0.000000
   39     1.000000   180.000000     0.000000     1.000000     0.000000     0.000000     0.000000     0.000000
   40    -1.000000   180.000000     0.000000     1.000000     0.000000     0.000000     0.000000     0.000000
   41     1.000000   120.000000     0.577350     0.577350    -0.577350     0.000000     0.000000     0.000000
   42    -1.000000   120.000000     0.577350     0.577350    -0.577350     0.000000     0.000000     0.000000
   43     1.000000   180.000000     0.000000    -0.707107     0.707107     0.000000     0.000000     0.000000
   44    -1.000000   180.000000     0.000000    -0.707107     0.707107     0.000000     0.000000     0.000000
   45     1.000000   180.000000     0.707107    -0.707107     0.000000     0.000000     0.000000     0.000000
   46    -1.000000   180.000000     0.707107    -0.707107     0.000000     0.000000     0.000000     0.000000
   47     1.000000   180.000000     0.707107     0.000000    -0.707107     0.000000     0.000000     0.000000
   48    -1.000000   180.000000     0.707107     0.000000    -0.707107     0.000000     0.000000     0.000000

 Subroutine IBZKPT returns following result:

 Found     35 irreducible k-points:

 Following reciprocal coordinates:
            Coordinates               Weight
  0.050000  0.050000  0.050000      8.000000
  0.150000  0.050000  0.050000     24.000000
  0.250000  0.050000  0.050000     24.000000
  0.350000  0.050000  0.050000     24.000000
  0.450000  0.050000  0.050000     24.000000
  0.150000  0.150000  0.050000     24.000000
  0.250000  0.150000  0.050000     48.000000
[...]
 k-point 20 :   0.2500 0.2500 0.1500  plane waves:    3395
 k-point 21 :   0.3500 0.2500 0.1500  plane waves:    3398
 k-point 22 :   0.4500 0.2500 0.1500  plane waves:    3401
 k-point 23 :   0.3500 0.3500 0.1500  plane waves:    3393
 k-point 24 :   0.4500 0.3500 0.1500  plane waves:    3392
 k-point 25 :   0.4500 0.4500 0.1500  plane waves:    3392
 k-point 26 :   0.2500 0.2500 0.2500  plane waves:    3389
 k-point 27 :   0.3500 0.2500 0.2500  plane waves:    3388
 k-point 28 :   0.4500 0.2500 0.2500  plane waves:    3386
 k-point 29 :   0.3500 0.3500 0.2500  plane waves:    3389
 k-point 30 :   0.4500 0.3500 0.2500  plane waves:    3383
 k-point 31 :   0.4500 0.4500 0.2500  plane waves:    3389
 k-point 32 :   0.3500 0.3500 0.3500  plane waves:    3380
 k-point 33 :   0.4500 0.3500 0.3500  plane waves:    3382
 k-point 34 :   0.4500 0.4500 0.3500  plane waves:    3389
 k-point 35 :   0.4500 0.4500 0.4500  plane waves:    3400

 maximum and minimum number of plane-waves per node :      3414     3380

 maximum number of plane-waves:      3414
 maximum index in each direction:
   IXMAX=    9   IYMAX=    9   IZMAX=    9
   IXMIN=   -9   IYMIN=   -9   IZMIN=   -9

 serial   3D FFT for wavefunctions
 parallel 3D FFT for charge:
    minimum data exchange during FFTs selected (reduces bandwidth)

 Broyden mixing: mesh for mixing (old mesh)
   NGX = 19   NGY = 19   NGZ = 19
  (NGX  = 56   NGY  = 56   NGZ  = 56)
  gives a total of   6859 points

 initial charge density was supplied:
 charge density of overlapping atoms calculated
 number of electron     176.0000000 magnetization
 keeping initial charge density in first step

 Maximum index for augmentation-charges          341 (set IRDMAX)

 First call to EWALD:  gamma=   0.268
 Maximum number of real-space cells 3x 3x 3
 Maximum number of reciprocal cells 3x 3x 3

--------------------------------------- Iteration      1(   1)  ---------------------------------------

 BZINTS: Fermi energy: 16.177182;176.000000 electrons
         Band energy:-523.897752;  BLOECHL correction: -0.053092

 eigenvalue-minimisations  :  9360
 total energy-change (2. order) : 0.1297199E+04  (-0.6975750E+04)
 number of electron     176.0000000 magnetization
 augmentation part      176.0000000 magnetization

 Free energy of the ion-electron system (eV)
  alpha Z        PSCENC =      1996.84190797
  Ewald energy   TEWEN  =    -15368.17067784
  -Hartree energ DENC   =     -2175.50696913
  -exchange      EXHF   =         0.00000000
  -V(xc)+E(xc)   XCENC  =       436.73544328
  PAW double counting   =     13337.45265006   -13148.06601292
  entropy T*S    EENTRO =         0.00000000
  eigenvalues    EBANDS =      -523.89775152
  atomic energy  EATOM  =     16741.81022793
  Solvation  Ediel_sol  =         0.00000000
  free energy    TOTEN  =      1297.19881782 eV

  energy without entropy =     1297.19881782  energy(sigma->0) =     1297.19881782

[...]

 eigenvalue-minimisations  :  8440
 total energy-change (2. order) :-0.1414199E+04  (-0.1388315E+04)
 number of electron     176.0000000 magnetization
 augmentation part      176.0000000 magnetization

[...]

 Broyden mixing:
  rms(total) = 0.72796E+01    rms(broyden)= 0.72794E+01
  rms(prec ) = 0.75703E+01
  weight for this iteration     100.00

[...]

 eigenvalues of (default mixing * dielectric matrix)
  average eigenvalue GAMMA=   1.8122
  1.8122

[...]

 eigenvalue-minimisations  :  8360
 total energy-change (2. order) : 0.4163812E-06  (-0.4963391E-08)
 number of electron     176.0000833 magnetization
 augmentation part       64.4815682 magnetization

 Broyden mixing:
  rms(total) = 0.64013E-04    rms(broyden)= 0.64011E-04
  rms(prec ) = 0.66022E-04
  weight for this iteration     100.00

 eigenvalues of (default mixing * dielectric matrix)
  average eigenvalue GAMMA=   1.7652
  2.6776  2.5433  2.5433  0.9577  1.0078  1.0078  1.6021  1.7823

[...]

--------------------------------------- Iteration      1(  14)  ---------------------------------------

 BZINTS: Fermi energy:  4.839799;176.000000 electrons
         Band energy:***********;  BLOECHL correction: -0.158895

 eigenvalue-minimisations  :  8320
 total energy-change (2. order) :-0.7524432E-07  (-0.8316276E-09)
 number of electron     176.0000833 magnetization
 augmentation part       64.4815682 magnetization

 Free energy of the ion-electron system (eV)
  alpha Z        PSCENC =      1996.84190797
  Ewald energy   TEWEN  =    -15368.17067784
  -Hartree energ DENC   =     -1921.95092747
  -exchange      EXHF   =         0.00000000
  -V(xc)+E(xc)   XCENC  =       422.98875401
  PAW double counting   =     23983.35348023   -23850.27504578
  entropy T*S    EENTRO =         0.00000000
  eigenvalues    EBANDS =     -2182.77133287
  atomic energy  EATOM  =     16741.81022793
  Solvation  Ediel_sol  =         0.00000000
  free energy    TOTEN  =      -178.17361382 eV

  energy without entropy =     -178.17361382  energy(sigma->0) =     -178.17361382

 average (electrostatic) potential at core
  the test charge radii are     1.2165
  (the norm of the test charge is              1.0000)
       1 -34.9061       2 -34.9061       3 -34.9061       4 -34.9061       5 -34.9061
       6 -34.9061       7 -34.9061       8 -34.9061       9 -34.9061      10 -34.9061
      11 -34.9061      12 -34.9061      13 -34.9061      14 -34.9061      15 -34.9061
      16 -34.9061

 E-fermi :   4.8398     XC(G=0): -12.6480     alpha+bet :-12.9149

 k-point     1 :       0.0500    0.0500    0.0500
  band No.  band energies     occupation
      1     -26.0699      2.00000
      2     -26.0699      2.00000
      3     -26.0699      2.00000
      4     -26.0647      2.00000
      5     -26.0647      2.00000
      6     -26.0647      2.00000
      7     -25.6394      2.00000
      8     -25.6394      2.00000
      9     -25.6271      2.00000
     10     -25.4994      2.00000
     11     -25.4961      2.00000
     12     -25.4961      2.00000
     13     -25.4961      2.00000
     14     -25.4469      2.00000
     15     -25.4469      2.00000
     16     -25.4247      2.00000
     17     -25.4247      2.00000
     18     -25.4247      2.00000
     19     -25.3395      2.00000
     20     -25.3395      2.00000
     21     -25.2859      2.00000
     22     -25.1955      2.00000
     23     -25.1955      2.00000
     24     -25.1955      2.00000
     25     -25.1753      2.00000
     26     -25.1753      2.00000
     27     -25.1753      2.00000
     28     -25.1332      2.00000
     29     -25.1332      2.00000
     30     -25.1332      2.00000
     31     -25.1272      2.00000
     32     -25.1272      2.00000
     33     -25.1272      2.00000
     34     -25.1209      2.00000
     35     -25.1209      2.00000
     36     -25.1209      2.00000
     37     -25.1018      2.00000
     38     -25.1018      2.00000
     39     -25.1018      2.00000
     40     -24.7132      2.00000
     41     -24.7132      2.00000
     42     -24.7132      2.00000
     43     -24.7071      2.00000
     44     -24.7071      2.00000
     45     -24.7071      2.00000
     46     -24.7071      2.00000
     47     -24.6932      2.00000
     48     -24.6932      2.00000
     49      -1.0487      2.00000
     50       1.1067      2.00000
     51       1.1067      2.00000
     52       1.1125      2.00000
     53       1.1125      2.00000
     54       1.1125      2.00000
     55       1.1256      2.00000
     56       1.1256      2.00000
     57       1.1256      2.00000
     58       2.1923      2.00000
     59       2.1923      2.00000
     60       2.1923      2.00000
[...]
    106       7.6979      0.00000
    107       7.6979      0.00000
    108       7.6979      0.00000
    109       8.0534      0.00000
    110       8.0534      0.00000
    111       8.0583      0.00000
    112       8.0583      0.00000
    113       8.0583      0.00000
    114       8.1241      0.00000
    115       8.1241      0.00000
    116       8.1241      0.00000
    117       8.7752      0.00000
    118       8.7754      0.00000
    119       8.7963      0.00000
    120       8.9086      0.00000

[...]

 k-point    35 :       0.4500    0.4500    0.4500
  band No.  band energies     occupation
      1     -25.7511      2.00000
      2     -25.7511      2.00000
      3     -25.7511      2.00000
      4     -25.7450      2.00000
      5     -25.7450      2.00000
      6     -25.7450      2.00000
      7     -25.6900      2.00000
      8     -25.6900      2.00000
      9     -25.6887      2.00000
     10     -25.6846      2.00000
     11     -25.6846      2.00000
     12     -25.6420      2.00000
     13     -25.6420      2.00000
     14     -25.6420      2.00000
     15     -25.6269      2.00000
     16     -25.6269      2.00000
     17     -25.6269      2.00000
     18     -25.6182      2.00000
     19     -25.6182      2.00000
     20     -25.6182      2.00000
     21     -25.5808      2.00000
     22     -25.5808      2.00000
     23     -25.5808      2.00000
     24     -25.5091      2.00000
     25     -25.0279      2.00000
     26     -24.9781      2.00000
     27     -24.9781      2.00000
     28     -24.9781      2.00000
     29     -24.9355      2.00000
     30     -24.9355      2.00000
     31     -24.9355      2.00000
     32     -24.9203      2.00000
     33     -24.9203      2.00000
     34     -24.9203      2.00000
     35     -24.9071      2.00000
     36     -24.9071      2.00000
     37     -24.9025      2.00000
     38     -24.8923      2.00000
     39     -24.8923      2.00000
     40     -24.8923      2.00000
     41     -24.8412      2.00000
     42     -24.8412      2.00000
     43     -24.8412      2.00000
     44     -24.8304      2.00000
     45     -24.8304      2.00000
     46     -24.8203      2.00000
     47     -24.8203      2.00000
     48     -24.8203      2.00000
     49       1.4259      2.00000
     50       1.7087      2.00000
     51       1.7087      2.00000
     52       1.7087      2.00000
     53       1.9780      2.00000
     54       1.9780      2.00000
     55       1.9780      2.00000
     56       2.3051      2.00000
     57       2.9374      2.00000
     58       2.9374      2.00000
     59       3.0375      2.00000
     60       3.0375      2.00000
[...]
    106       8.2481      0.00000
    107       8.2586      0.00000
    108       8.2586      0.00000
    109       8.2586      0.00000
    110       8.2840      0.00000
    111       8.2840      0.00000
    112       8.2840      0.00000
    113       8.2882      0.00000
    114       8.2882      0.00000
    115       8.2882      0.00000
    116       8.3611      0.00000
    117       8.3611      0.00000
    118       8.3611      0.00000
    119       8.5879      0.00000
    120       8.5879      0.00000

 soft charge-density along one line, spin component           1
         0         1         2         3         4         5         6         7         8         9
 total charge-density along one line

------------------------ aborting loop because EDIFF is reached ----------------------------------------

  FORCE on cell =-STRESS in cart. coord.  units (eV):
  Direction    XX          YY          ZZ          XY          YZ          ZX
  Alpha Z  1996.84191  1996.84191  1996.84191
  Ewald   -5122.73989 -5122.73989 -5122.73989     0.00000     0.00000     0.00000
  Hartree   640.65046   640.65046   640.65046    -0.00000    -0.00000    -0.00000
  E(xc)    -750.15945  -750.15945  -750.15945     0.00000    -0.00000     0.00000
  Local    1644.48868  1644.48868  1644.48868     0.00000    -0.00000    -0.00000
  n-local  -664.88704  -671.84035  -673.93653    -5.06590    -2.68212    -3.16859
  augment   418.79466   418.79466   418.79466     0.00000    -0.00000    -0.00000
  Kinetic  1844.39684  1828.98993  1816.99598   -11.90839    -3.92761    -6.52056
  Fock        0.00000     0.00000     0.00000     0.00000     0.00000     0.00000
  Total     -12.21735   -12.21735   -12.21735    -0.00000    -0.00000    -0.00000
  in kB     -68.03621   -68.03621   -68.03621    -0.00000    -0.00000    -0.00000

 VOLUME and BASIS-vectors are now :
  energy-cutoff  :      300.00
  volume of cell :      287.71
      direct lattice vectors                 reciprocal lattice vectors
     6.601600000  0.000000000  0.000000000     0.151478429  0.000000000  0.000000000
     0.000000000  6.601600000  0.000000000     0.000000000  0.151478429  0.000000000
     0.000000000  0.000000000  6.601600000     0.000000000  0.000000000  0.151478429

  length of vectors
     6.601600000  6.601600000  6.601600000     0.151478429  0.151478429  0.151478429

 FORCES acting on ions
    electron-ion (+dipol)            ewald-force                    non-local-force                 convergence-correction
   0.257E-13 -.239E-13 0.205E-13   0.128E-12 0.426E-13 0.711E-13   -.466E-20 0.119E-19 -.529E-20   -.790E-13 0.276E-13 -.273E-13
   0.851E-13 0.732E-13 0.879E-13   0.128E-12 0.840E-13 0.843E-13   0.932E-20 0.508E-20 -.212E-21   -.615E-13 -.674E-13 -.698E-13
   0.172E-12 -.164E-13 0.257E-13   0.426E-13 0.284E-13 0.426E-13   -.296E-20 0.678E-20 0.593E-20   0.556E-13 0.335E-13 -.231E-13
   0.441E-12 -.610E-12 -.599E-12   0.428E-13 0.422E-13 0.698E-13   -.169E-20 -.593E-20 0.847E-21   0.224E-13 -.731E-13 -.831E-13
   0.262E-13 0.223E-12 0.187E-13   0.711E-13 0.000E+00 0.142E-13   0.551E-20 -.169E-20 -.233E-20   -.648E-13 -.538E-13 -.294E-13
   0.841E-13 0.454E-12 0.950E-13   0.663E-13 0.426E-13 -.130E-14   0.847E-21 0.424E-21 -.148E-20   -.710E-13 0.196E-13 -.705E-13
   0.268E-13 -.240E-13 0.176E-12   -.142E-13 -.142E-13 0.142E-13   -.932E-20 -.144E-19 -.191E-20   -.653E-13 0.250E-13 0.575E-14
   0.838E-13 0.806E-13 0.441E-12   -.138E-13 -.235E-14 0.142E-13   0.424E-21 0.102E-19 -.424E-21   -.670E-13 -.663E-13 0.353E-13
   0.174E-12 0.218E-12 0.194E-13   -.142E-13 0.000E+00 0.142E-13   -.381E-20 0.119E-19 0.191E-20   0.405E-13 -.642E-13 -.262E-13
   0.439E-12 0.556E-12 -.130E-11   -.143E-13 0.426E-13 0.180E-13   0.424E-20 0.932E-20 0.339E-20   0.277E-13 0.354E-13 -.870E-13
   0.271E-13 0.223E-12 0.173E-12   -.142E-13 -.426E-13 0.142E-13   0.296E-20 -.932E-20 0.402E-20   -.513E-13 -.549E-13 0.508E-14
   0.845E-13 0.439E-12 0.425E-12   -.117E-13 -.284E-13 0.143E-13   0.847E-21 0.119E-19 0.911E-20   -.760E-13 0.163E-13 0.295E-13
   0.172E-12 -.228E-13 0.168E-12   -.995E-13 0.000E+00 -.568E-13   -.466E-20 0.424E-21 0.360E-20   0.415E-13 0.329E-13 -.368E-14
   0.440E-12 -.131E-11 0.543E-12   -.997E-13 0.147E-13 -.142E-13   -.254E-20 0.339E-20 0.112E-19   0.277E-13 -.686E-13 0.471E-13
   0.172E-12 0.218E-12 0.168E-12   -.128E-12 -.711E-13 -.995E-13   0.847E-21 0.127E-20 -.172E-19   0.252E-13 -.610E-13 0.517E-15
   0.439E-12 0.196E-11 0.195E-11   -.128E-12 -.287E-13 -.285E-13   -.212E-20 0.551E-20 -.360E-20   0.305E-13 0.318E-13 0.467E-13
   0.289E-11 0.244E-11 0.241E-11   -.582E-13 0.110E-12 0.171E-12   -.678E-20 0.466E-19 0.762E-20   -.265E-12 -.287E-12 -.250E-12

 POSITION                                       TOTAL-FORCE (eV/Angst)
      0.00000      0.00000      0.00000        -0.000000      0.000000     -0.000000
      1.65040      1.65040      1.65040         0.000000      0.000000     -0.000000
      3.30080      0.00000      0.00000        -0.000000     -0.000000      0.000000
      4.95120      1.65040      1.65040        -0.000000     -0.000000      0.000000
      0.00000      3.30080      0.00000         0.000000      0.000000     -0.000000
      1.65040      4.95120      1.65040         0.000000      0.000000     -0.000000
      0.00000      0.00000      3.30080         0.000000      0.000000     -0.000000
      1.65040      1.65040      4.95120        -0.000000     -0.000000     -0.000000
      3.30080      3.30080      0.00000         0.000000     -0.000000     -0.000000
      4.95120      4.95120      1.65040         0.000000     -0.000000      0.000000
      0.00000      3.30080      3.30080         0.000000      0.000000     -0.000000
      1.65040      4.95120      4.95120         0.000000      0.000000     -0.000000
      3.30080      0.00000      3.30080        -0.000000     -0.000000      0.000000
      4.95120      1.65040      4.95120        -0.000000     -0.000000      0.000000
      3.30080      3.30080      3.30080         0.000000      0.000000      0.000000
      4.95120      4.95120      4.95120        -0.000000     -0.000000      0.000000
    total drift:                                0.000000      0.000000      0.000000

  FREE ENERGIE OF THE ION-ELECTRON SYSTEM (eV)
  free  energy   TOTEN  =      -178.17361382 eV

  energy  without entropy=     -178.17361382  energy(sigma->0) =     -178.17361382

 writing wavefunctions
 BZINTS: Fermi energy:  4.839799;176.000000 electrons
         Band energy:***********;  BLOECHL correction: -0.158895