 vasp.5.4.4.18Apr17-6-g9f103f2a35 (build May 20 2018 16:52:39) complex

 executed on             LinuxIFC date 2022.10.29  11:00:00

 INCAR:
 POTCAR:    PAW Ni
 POTCAR:    PAW O
 POTCAR:    PAW Ni
   VRHFIN =Ni:

   TITEL  = PAW Ni
   POMASS =   58.690; ZVAL   =   10.000    mass and valenz
   ENMAX  =  269.561; ENMIN  =  202.171 eV
   QCUT   =   -4.451; QGAM   =    8.902    optimization parameters

   Description
     l     E      TYP  RCUT    TYP  RCUT
     2   .000     23  2.300
     2   .000     23  2.300
     0   .000     23  2.300
     0   .000     23  2.300
     1  -.200     23  2.300
     1   .000     23  2.300
     3   .000      7   .000

 POTCAR:    PAW O
   VRHFIN =O: s2p4

   TITEL  = PAW O
   POMASS =   16.000; ZVAL   =    6.000    mass and valenz
   ENMAX  =  400.000; ENMIN  =  300.000 eV
   QCUT   =   -5.520; QGAM   =   11.040    optimization parameters

   Description
     l     E      TYP  RCUT    TYP  RCUT
     0   .000     23  1.200
     0  -.700     23  1.200
     1   .000     23  1.520
     1   .600     23  1.520
     2   .000      7  1.500

  PAW Ni                                :
  PAW O                                 :

 POSCAR: NiO AFM
  positions in cartesian coordinates
  velocities in cartesian coordinates
 exchange correlation table for  LEXCH =        7
   RHO(1)=    0.500       N(1)  =     2000
   RHO(2)=  100.500       N(2)  =     4000

 ion  position               nearest neighbor table
   1  0.000  0.000  0.000-   4 2.08   4 2.08   4 2.08   3 2.08   3 2.08   3 2.08   2 2.95   2 2.95
                             2 2.95   2 2.95   2 2.95   2 2.95
   2  0.500  0.500  0.500-   3 2.08   3 2.08   3 2.08   4 2.08   4 2.08   4 2.08   1 2.95   1 2.95
                             1 2.95   1 2.95   1 2.95   1 2.95
   3  0.250  0.250  0.250-   1 2.08   1 2.08   1 2.08   2 2.08   2 2.08   2 2.08
   4  0.750  0.750  0.750-   2 2.08   2 2.08   2 2.08   1 2.08   1 2.08   1 2.08

  LATTYP: Found a trigonal (rhomboedric) cell.
 ALAT       =     5.1071861137
 COS(alpha) =     0.8333333333

  Lattice vectors:

 A1 = (   4.1700000000,   2.0850000000,   2.0850000000)
 A2 = (   2.0850000000,   4.1700000000,   2.0850000000)
 A3 = (   2.0850000000,   2.0850000000,   4.1700000000)

Analysis of symmetry for initial positions (statically):
 Subroutine PRICEL returns following result:

  LATTYP: Found a face centered cubic cell.
 ALAT       =     4.1700000000

[...]

   2 primitive cells build up your supercell.

 Routine SETGRP: Setting up the symmetry group for a
 trigonal (rhombohedral) supercell.

 Subroutine GETGRP returns: Found 12 space group operations
 (whereof 12 operations were pure point group operations)
 out of a pool of 12 trial point group operations.

The static configuration has the point symmetry D_3d.

Analysis of symmetry for dynamics (positions and initial velocities):
 Subroutine PRICEL returns following result:

[...]

The dynamic configuration has the point symmetry D_3d.

Analysis of structural, dynamic, and magnetic symmetry:
 Subroutine PRICEL returns following result:

  LATTYP: Found a face centered cubic cell.
 ALAT       =     4.1700000000

  Lattice vectors:

 A1 = (   2.0850000000,   0.0000000000,  -2.0850000000)
 A2 = (   0.0000000000,   2.0850000000,  -2.0850000000)
 A3 = (   2.0850000000,   2.0850000000,   0.0000000000)

   2 primitive cells build up your supercell.

 Routine SETGRP: Setting up the symmetry group for a
 trigonal (rhombohedral) supercell.

 Subroutine GETGRP returns: Found 12 space group operations
 (whereof 12 operations were pure point group operations)
 out of a pool of 12 trial point group operations.

The magnetic configuration has the point symmetry D_3d.

 Subroutine INISYM returns: Found 12 space group operations
 (whereof 12 operations are pure point group operations),
 and found     2 'primitive' translations

 KPOINTS: K-points
  interpolating k-points between supplied coordinates
  k-points in reciprocal lattice
Space group operators:
 irot       det(A)        alpha          n_x          n_y          n_z        tau_x        tau_y        tau_z
    1     1.000000     0.000000     1.000000     0.000000     0.000000     0.000000     0.000000     0.000000
    2    -1.000000     0.000000     1.000000     0.000000     0.000000     0.000000     0.000000     0.000000
    3     1.000000   180.000000     0.000000     0.707107    -0.707107     0.000000     0.000000     0.000000
    4    -1.000000   180.000000     0.000000     0.707107    -0.707107     0.000000     0.000000     0.000000
    5     1.000000   120.000000    -0.577350    -0.577350    -0.577350     0.000000     0.000000     0.000000
    6    -1.000000   120.000000    -0.577350    -0.577350    -0.577350     0.000000     0.000000     0.000000
    7     1.000000   180.000000     0.707107    -0.707107     0.000000     0.000000     0.000000     0.000000
    8    -1.000000   180.000000     0.707107    -0.707107     0.000000     0.000000     0.000000     0.000000
    9     1.000000   120.000000     0.577350     0.577350     0.577350     0.000000     0.000000     0.000000
   10    -1.000000   120.000000     0.577350     0.577350     0.577350     0.000000     0.000000     0.000000
   11     1.000000   180.000000     0.707107     0.000000    -0.707107     0.000000     0.000000     0.000000
   12    -1.000000   180.000000     0.707107     0.000000    -0.707107     0.000000     0.000000     0.000000

 SYSTEM =  NiO_af2
 POSCAR =  NiO AFM

 Startparameter for this run:
   NWRITE =      2    write-flag & timer
   PREC   = normal    normal or accurate (medium, high low for compatibility)
   ISTART =      0    job   : 0-new  1-cont  2-samecut
   ICHARG =     11    charge: 1-file 2-atom 10-const
   ISPIN  =      2    spin polarized calculation?
   LNONCOLLINEAR =      F non collinear calculations
   LSORBIT =      F    spin-orbit coupling
   INIWAV =      1    electr: 0-lowe 1-rand  2-diag
   LASPH  =      F    aspherical Exc in radial PAW
   METAGGA=      F    non-selfconsistent MetaGGA calc.

 Electronic Relaxation 1
   ENCUT  =  400.0 eV  29.40 Ry    5.42 a.u.   8.33  8.33  8.33*2*pi/ulx,y,z
   ENINI  =  400.0     initial cutoff
   ENAUG  =  605.4 eV  augmentation charge cutoff
   NELM   =     60;   NELMIN=  2; NELMDL= -5     # of ELM steps
   EDIFF  = 0.1E-03   stopping-criterion for ELM
   LREAL  =      F    real-space projection
   NLSPLINE    = F    spline interpolate recip. space projectors
   LCOMPAT=      F    compatible to vasp.4.4
   GGA_COMPAT  = T    GGA compatible to vasp.4.4-vasp.4.6
   LMAXPAW     = -100 max onsite density
   LMAXMIX     =    2 max onsite mixed and CHGCAR
   VOSKOWN=      0    Vosko Wilk Nusair interpolation
   ROPT   =    0.00000   0.00000
 Ionic relaxation
   EDIFFG = 0.1E-02   stopping-criterion for IOM
   NSW    =      0    number of steps for IOM
   NBLOCK =      1;   KBLOCK =      1    inner block; outer block
   IBRION =     -1    ionic relax: 0-MD 1-quasi-New 2-CG
   NFREE  =      0    steps in history (QN), initial steepest desc. (CG)
   ISIF   =      2    stress and relaxation
   IWAVPR =     10    prediction:  0-non 1-charg 2-wave 3-comb
   ISYM   =      2    0-nonsym 1-usesym 2-fastsym
   LCORR  =      T    Harris-Foulkes like correction to forces

   POTIM  = 0.5000    time-step for ionic-motion
   TEIN   =    0.0    initial temperature
   TEBEG  =    0.0;   TEEND  =   0.0 temperature during run
   SMASS  =  -3.00    Nose mass-parameter (am)
   estimated Nose-frequenzy (Omega)   =  0.10E-29 period in steps =****** mass=  -0.596E-27a.u.
   SCALEE = 1.0000    scale energy and forces
   NPACO  =    256;   APACO  = 16.0  distance and # of slots for P.C.
   PSTRESS=    0.0 pullay stress

  Mass of Ions in am
   POMASS =  58.69 16.00
  Ionic Valenz
   ZVAL   =  10.00  6.00
  Atomic Wigner-Seitz radii
  virtual crystal weights
   VCA    =   1.00  1.00
   NELECT =      32.0000    total number of electrons
   NUPDOWN=      -1.0000    fix difference up-down

 DOS related values:
   EMIN   =  10.00;   EMAX   =-10.00  energy-range for DOS
   EFERMI =   0.00
   ISMEAR =     1;   SIGMA  =   0.20  broadening in eV -4-tet -1-fermi 0-gaus

 Electronic relaxation 2 (details)
   IALGO  =     38    algorithm
   LDIAG  =      T    sub-space diagonalisation (order eigenvalues)
   LSUBROT=      F    optimize rotation matrix (better conditioning)
   TURBO    =      0    0=normal 1=particle mesh
   IRESTART =      0    0=no restart 2=restart with 2 vectors
   NREBOOT  =      0    no. of reboots
   NMIN     =      0    reboot dimension
   EREF     =   0.00    reference energy to select bands
   IMIX   =      4    mixing-type and parameters
     AMIX     =   0.40;   BMIX     =  1.00
     AMIX_MAG =   1.60;   BMIX_MAG =  1.00
     AMIN     =   0.10
     WC   =   100.;   INIMIX=   1;  MIXPRE=   1;  MAXMIX= -45

 Intra band minimization:
   WEIMIN = 0.0000     energy-eigenvalue tresh-hold
   EBREAK =  0.13E-05  absolut break condition
   DEPER  =   0.30     relativ break condition

   TIME   =   0.40     timestep for ELM

  volume/ion in A,a.u.               =       9.06        61.17
  Fermi-wavevector in a.u.,A,eV,Ry     =   1.570358  2.967547 33.552312  2.466025
  Thomas-Fermi vector in A             =   2.672104

 Write flags
   LWAVE        =      F    write WAVECAR
   LDOWNSAMPLE  =      F    k-point downsampling of WAVECAR
   LCHARG       =      F    write CHGCAR
   LVTOT        =      F    write LOCPOT, total local potential
   LVHAR        =      F    write LOCPOT, Hartree potential only
   LELF         =      F    write electronic localiz. function (ELF)
   LORBIT       =     11    0 simple, 1 ext, 2 COOP (PROOUT), +10 PAW based schemes

 Dipole corrections
   LMONO  =      F    monopole corrections only (constant potential shift)
   LDIPOL =      F    correct potential (dipole corrections)
   IDIPOL =      0    1-x, 2-y, 3-z, 4-all directions
   EPSILON=  1.0000000 bulk dielectric constant

 LDA+U is selected, type is set to LDAUTYPE =  2
   angular momentum for each species LDAUL =     2   -1
   U (eV)           for each species LDAUU =   7.0  0.0
   J (eV)           for each species LDAUJ =   0.0  0.0
 Exchange correlation treatment:
   GGA     =    --    GGA type
   VOSKOWN=      0    Vosko Wilk Nusair interpolation
   LHFCALC =     F    Hartree Fock is set to
   LHFONE  =     F    Hartree Fock one center treatment
   AEXX    =    0.0000 exact exchange contribution

 Linear response parameters
   LEPSILON=     F    determine dielectric tensor
   LRPA    =     F    only Hartree local field effects (RPA)
   LNABLA  =     F    use nabla operator in PAW spheres
   LVEL    =     F    velocity operator in full k-point grid
   LINTERFAST=   F  fast interpolation
   KINTER  =     0    interpolate to denser k-point grid
   CSHIFT  =0.1000    complex shift for real part using Kramers Kronig
   OMEGAMAX=  -1.0    maximum frequency
   DEG_THRESHOLD= 0.2000000E-02 threshold for treating states as degnerate
   RTIME   =   -0.100 relaxation time in fs
  (WPLASMAI=    0.000 imaginary part of plasma frequency in eV, 0.658/RTIME)
   DFIELD  = 0.0000000 0.0000000 0.0000000 field for delta impulse in time

 Orbital magnetization related:
[...]
   0.62500000  0.25000000  0.62500000       0.008
   0.59210526  0.23684211  0.59210526       0.008
   0.55921053  0.22368421  0.55921053       0.008
   0.52631579  0.21052632  0.52631579       0.008
   0.49342105  0.19736842  0.49342105       0.008
   0.46052632  0.18421053  0.46052632       0.008
   0.42763158  0.17105263  0.42763158       0.008
   0.39473684  0.15789474  0.39473684       0.008
   0.36184211  0.14473684  0.36184211       0.008
   0.32894737  0.13157895  0.32894737       0.008
   0.29605263  0.11842105  0.29605263       0.008
   0.26315789  0.10526316  0.26315789       0.008
   0.23026316  0.09210526  0.23026316       0.008
   0.19736842  0.07894737  0.19736842       0.008
   0.16447368  0.06578947  0.16447368       0.008
   0.13157895  0.05263158  0.13157895       0.008
   0.09868421  0.03947368  0.09868421       0.008
   0.06578947  0.02631579  0.06578947       0.008
   0.03289474  0.01315789  0.03289474       0.008
   0.00000000  0.00000000  0.00000000       0.008
[...]
   0.50000000  0.18421053  0.68421053       0.008
   0.50000000  0.17105263  0.67105263       0.008
   0.50000000  0.15789474  0.65789474       0.008
   0.50000000  0.14473684  0.64473684       0.008
   0.50000000  0.13157895  0.63157895       0.008
   0.50000000  0.11842105  0.61842105       0.008
   0.50000000  0.10526316  0.60526316       0.008
   0.50000000  0.09210526  0.59210526       0.008
   0.50000000  0.07894737  0.57894737       0.008
   0.50000000  0.06578947  0.56578947       0.008
   0.50000000  0.05263158  0.55263158       0.008
   0.50000000  0.03947368  0.53947368       0.008
   0.50000000  0.02631579  0.52631579       0.008
   0.50000000  0.01315789  0.51315789       0.008
   0.50000000  0.00000000  0.50000000       0.008

 position of ions in fractional coordinates (direct lattice)
   0.00000000  0.00000000  0.00000000
   0.50000000  0.50000000  0.50000000
   0.25000000  0.25000000  0.25000000
   0.75000000  0.75000000  0.75000000

 position of ions in cartesian coordinates  (Angst):
   0.00000000  0.00000000  0.00000000
   4.17000000  4.17000000  4.17000000
   2.08500000  2.08500000  2.08500000
   6.25500000  6.25500000  6.25500000

 k-point  1 :   0.0000 0.0000 0.0000  plane waves:     663
 k-point  2 :   0.0263 0.0000 0.0263  plane waves:     663
 k-point  3 :   0.0526 0.0000 0.0526  plane waves:     667
 k-point  4 :   0.0789 0.0000 0.0789  plane waves:     667
 k-point  5 :   0.1053 0.0000 0.1053  plane waves:     661
 k-point  6 :   0.1316 0.0000 0.1316  plane waves:     662
 k-point  7 :   0.1579 0.0000 0.1579  plane waves:     657
 k-point  8 :   0.1842 0.0000 0.1842  plane waves:     647
 k-point  9 :   0.2105 0.0000 0.2105  plane waves:     645
 k-point 10 :   0.2368 0.0000 0.2368  plane waves:     652
 k-point 11 :   0.2632 0.0000 0.2632  plane waves:     655
 k-point 12 :   0.2895 0.0000 0.2895  plane waves:     662
 k-point 13 :   0.3158 0.0000 0.3158  plane waves:     664
 k-point 14 :   0.3421 0.0000 0.3421  plane waves:     662
 k-point 15 :   0.3684 0.0000 0.3684  plane waves:     656
 k-point 16 :   0.3947 0.0000 0.3947  plane waves:     660
 k-point 17 :   0.4211 0.0000 0.4211  plane waves:     662
 k-point 18 :   0.4474 0.0000 0.4474  plane waves:     671
 k-point 19 :   0.4737 0.0000 0.4737  plane waves:     673
 k-point 20 :   0.5000 0.0000 0.5000  plane waves:     674
 k-point 21 :   0.5000 0.0000 0.5000  plane waves:     674
 k-point 22 :   0.5066 0.0132 0.5066  plane waves:     674
 k-point 23 :   0.5132 0.0263 0.5132  plane waves:     666
 k-point 24 :   0.5197 0.0395 0.5197  plane waves:     667
 k-point 25 :   0.5263 0.0526 0.5263  plane waves:     667
 k-point 26 :   0.5329 0.0658 0.5329  plane waves:     669
 k-point 27 :   0.5395 0.0789 0.5395  plane waves:     669
 k-point 28 :   0.5461 0.0921 0.5461  plane waves:     669
 k-point 29 :   0.5526 0.1053 0.5526  plane waves:     670
 k-point 30 :   0.5592 0.1184 0.5592  plane waves:     668
 k-point 31 :   0.5658 0.1316 0.5658  plane waves:     660
 k-point 32 :   0.5724 0.1447 0.5724  plane waves:     658
 k-point 33 :   0.5789 0.1579 0.5789  plane waves:     658
 k-point 34 :   0.5855 0.1711 0.5855  plane waves:     657
 k-point 35 :   0.5921 0.1842 0.5921  plane waves:     659
 k-point 36 :   0.5987 0.1974 0.5987  plane waves:     661
 k-point 37 :   0.6053 0.2105 0.6053  plane waves:     654
 k-point 38 :   0.6118 0.2237 0.6118  plane waves:     654
 k-point 39 :   0.6184 0.2368 0.6184  plane waves:     656
 k-point 40 :   0.6250 0.2500 0.6250  plane waves:     656
 k-point 41 :   0.6250 0.2500 0.6250  plane waves:     656
 k-point 42 :   0.5921 0.2368 0.5921  plane waves:     653
 k-point 43 :   0.5592 0.2237 0.5592  plane waves:     653
 k-point 44 :   0.5263 0.2105 0.5263  plane waves:     653
 k-point 45 :   0.4934 0.1974 0.4934  plane waves:     660
 k-point 46 :   0.4605 0.1842 0.4605  plane waves:     658
 k-point 47 :   0.4276 0.1711 0.4276  plane waves:     656
 k-point 48 :   0.3947 0.1579 0.3947  plane waves:     656
 k-point 49 :   0.3618 0.1447 0.3618  plane waves:     650
 k-point 50 :   0.3289 0.1316 0.3289  plane waves:     650
 k-point 51 :   0.2961 0.1184 0.2961  plane waves:     653
 k-point 52 :   0.2632 0.1053 0.2632  plane waves:     653
 k-point 53 :   0.2303 0.0921 0.2303  plane waves:     656
 k-point 54 :   0.1974 0.0789 0.1974  plane waves:     661
 k-point 55 :   0.1645 0.0658 0.1645  plane waves:     665
 k-point 56 :   0.1316 0.0526 0.1316  plane waves:     665
 k-point 57 :   0.0987 0.0395 0.0987  plane waves:     669
 k-point 58 :   0.0658 0.0263 0.0658  plane waves:     667
 k-point 59 :   0.0329 0.0132 0.0329  plane waves:     663
 k-point 60 :   0.0000 0.0000 0.0000  plane waves:     663
[...]
 k-point 85 :   0.5000 0.4474 0.5526  plane waves:     652
 k-point 86 :   0.5000 0.4342 0.5658  plane waves:     658
 k-point 87 :   0.5000 0.4211 0.5789  plane waves:     658
 k-point 88 :   0.5000 0.4079 0.5921  plane waves:     654
 k-point 89 :   0.5000 0.3947 0.6053  plane waves:     652
 k-point 90 :   0.5000 0.3816 0.6184  plane waves:     652
 k-point 91 :   0.5000 0.3684 0.6316  plane waves:     652
 k-point 92 :   0.5000 0.3553 0.6447  plane waves:     656
 k-point 93 :   0.5000 0.3421 0.6579  plane waves:     654
 k-point 94 :   0.5000 0.3289 0.6711  plane waves:     650
 k-point 95 :   0.5000 0.3158 0.6842  plane waves:     652
 k-point 96 :   0.5000 0.3026 0.6974  plane waves:     654
 k-point 97 :   0.5000 0.2895 0.7105  plane waves:     660
 k-point 98 :   0.5000 0.2763 0.7237  plane waves:     658
 k-point 99 :   0.5000 0.2632 0.7368  plane waves:     660
 k-point ** :   0.5000 0.2500 0.7500  plane waves:     662
 k-point ** :   0.5000 0.2500 0.7500  plane waves:     662
 k-point ** :   0.5000 0.2368 0.7368  plane waves:     658
 k-point ** :   0.5000 0.2237 0.7237  plane waves:     659
 k-point ** :   0.5000 0.2105 0.7105  plane waves:     655
 k-point ** :   0.5000 0.1974 0.6974  plane waves:     654
 k-point ** :   0.5000 0.1842 0.6842  plane waves:     659
 k-point ** :   0.5000 0.1711 0.6711  plane waves:     661
 k-point ** :   0.5000 0.1579 0.6579  plane waves:     661
 k-point ** :   0.5000 0.1447 0.6447  plane waves:     663
 k-point ** :   0.5000 0.1316 0.6316  plane waves:     663
 k-point ** :   0.5000 0.1184 0.6184  plane waves:     661
 k-point ** :   0.5000 0.1053 0.6053  plane waves:     657
 k-point ** :   0.5000 0.0921 0.5921  plane waves:     661
 k-point ** :   0.5000 0.0789 0.5789  plane waves:     665
 k-point ** :   0.5000 0.0658 0.5658  plane waves:     667
 k-point ** :   0.5000 0.0526 0.5526  plane waves:     672
 k-point ** :   0.5000 0.0395 0.5395  plane waves:     672
 k-point ** :   0.5000 0.0263 0.5263  plane waves:     670
 k-point ** :   0.5000 0.0132 0.5132  plane waves:     672
 k-point ** :   0.5000 0.0000 0.5000  plane waves:     674

 maximum and minimum number of plane-waves per node :       674      645

 maximum number of plane-waves:       674
 maximum index in each direction:
   IXMAX=    8   IYMAX=    8   IZMAX=    8
   IXMIN=   -8   IYMIN=   -8   IZMIN=   -9

 serial   3D FFT for wavefunctions
 parallel 3D FFT for charge:
    minimum data exchange during FFTs selected (reduces bandwidth)

 initial charge density was supplied:
 number of electron      32.0000048 magnetization       0.0000000
 keeping initial charge density in first step

 Maximum index for augmentation-charges        19063 (set IRDMAX)

 First call to EWALD:  gamma=   0.536
 Maximum number of real-space cells 3x 3x 3
 Maximum number of reciprocal cells 4x 4x 4

--------------------------------------- Iteration      1(   1)  ---------------------------------------

 eigenvalue-minimisations  :  9768
 total energy-change (2. order) : 0.2140880E+03  (-0.1462041E+04)
 number of electron      32.0000048 magnetization       0.0000000
 augmentation part       32.0000048 magnetization       0.0000000

 Free energy of the ion-electron system (eV)
  alpha Z        PSCENC =       217.71629331
  Ewald energy   TEWEN  =     -2604.77031634
  -Hartree energ DENC   =      -632.55112854
  -exchange      EXHF   =         0.00000000
  -V(xc)+E(xc)   XCENC  =       119.27466708
  PAW double counting   =      2354.03358362    -2448.00643139
  entropy T*S    EENTRO =        -0.00022571
  eigenvalues    EBANDS =       183.64900291
  atomic energy  EATOM  =      3024.74254395
  Solvation  Ediel_sol  =         0.00000000
  free energy    TOTEN  =       214.08798889 eV

  energy without entropy =      214.08821460  energy(sigma->0) =      214.08806413

[...]

 eigenvalue-minimisations  : 10256
 total energy-change (2. order) :-0.2086768E+03  (-0.1984752E+03)
 number of electron      32.0000048 magnetization       0.0000000
 augmentation part       32.0000048 magnetization       0.0000000

[...]

--------------------------------------- Iteration      1(   7)  ---------------------------------------

 eigenvalue-minimisations  :  6200
 total energy-change (2. order) :-0.3827895E-05  (-0.3827481E-05)
 number of electron      32.0000048 magnetization       0.0000000
 augmentation part       32.0000048 magnetization       0.0000000

 Free energy of the ion-electron system (eV)
  alpha Z        PSCENC =       217.71629331
  Ewald energy   TEWEN  =     -2604.77031634
  -Hartree energ DENC   =      -632.55112854
  -exchange      EXHF   =         0.00000000
  -V(xc)+E(xc)   XCENC  =       119.27466708
  PAW double counting   =      2354.03358362    -2448.00643139
  entropy T*S    EENTRO =         0.00834139
  eigenvalues    EBANDS =       -44.76001648
  atomic energy  EATOM  =      3024.74254395
  Solvation  Ediel_sol  =         0.00000000
  free energy    TOTEN  =       -14.31246341 eV

  energy without entropy =      -14.32080479  energy(sigma->0) =      -14.31524387

 average (electrostatic) potential at core
  the test charge radii are     0.9791  0.7215
  (the norm of the test charge is              1.0000)
       1 -43.1214       2 -43.1214       3 -71.0731       4 -71.0731

 E-fermi :   3.7665     XC(G=0): -12.7202     alpha+bet :-11.2748

 spin component 1

 k-point     1 :       0.0000    0.0000    0.0000
  band No.  band energies     occupation
      1     -14.6923      1.00000
      2     -13.2286      1.00000
      3      -3.4783      1.00000
      4      -2.4909      1.00000
      5      -2.4909      1.00000
      6      -1.3475      1.00000
      7      -1.3475      1.00000
      8      -0.5717      1.00000
      9       1.3008      1.00000
     10       1.3008      1.00000
     11       2.6228      1.00000
     12       2.6228      1.00000
     13       2.7521      1.00000
     14       2.7521      1.00000
     15       2.7541      1.00000
     16       2.9738      1.00000
     17       5.6672     -0.00000
     18       5.6672     -0.00000
     19       7.0605     -0.00000
     20      10.9915      0.00000

[...]

 spin component 2

[...]

 k-point   120 :       0.5000    0.0000    0.5000
  band No.  band energies     occupation
      1     -13.3612      1.00000
      2     -13.2284      1.00000
      3      -3.4674      1.00000
      4      -2.4067      1.00000
      5      -2.2834      1.00000
      6      -1.4989      1.00000
      7      -1.3832      1.00000
      8      -0.9528      1.00000
      9      -0.2793      1.00000
     10       1.3729      1.00000
     11       1.3741      1.00000
     12       1.5867      1.00000
     13       1.7204      1.00000
     14       2.5879      1.00000
     15       3.0589      1.00000
     16       3.2864      1.00179
     17       5.7292     -0.00000
     18       5.8085     -0.00000
     19      10.9927      0.00000
     20      11.5184      0.00000

 soft charge-density along one line, spin component           1
         0         1         2         3         4         5         6         7         8         9
 total charge-density along one line

 soft charge-density along one line, spin component           2
         0         1         2         3         4         5         6         7         8         9
 total charge-density along one line

------------------------ aborting loop because EDIFF is reached ----------------------------------------

 total charge

# of ion       s       p       d       tot
    1        0.351   0.339   8.736   9.426
    2        0.351   0.339   8.736   9.426
    3        1.545   3.203   0.000   4.748
    4        1.545   3.203   0.000   4.748
tot          3.792   7.084  17.473  28.349

 magnetization (x)

[...]

  FORCE on cell =-STRESS in cart. coord.  units (eV):
  Direction    XX          YY          ZZ          XY          YZ          ZX
  Alpha Z   217.71629   217.71629   217.71629
  Ewald    -868.25805  -868.25805  -868.25805     0.00000    -0.00000    -0.00000
  Hartree   225.06288   225.06288   225.06288    -0.21740    -0.21740    -0.21740
  E(xc)    -171.06591  -171.06591  -171.06591    -0.00926    -0.00926    -0.00926
  Local     196.81682   196.81682   196.81682     0.14799     0.14799     0.14799
  n-local  -102.53919   -98.58138  -101.93106    -0.05455     0.08073    -0.72357
  augment   124.66712   124.66712   124.66712     0.11711     0.11711     0.11711
  Kinetic   408.26751   402.18036   408.16265    -0.36453    -0.45602     1.12668
  Fock        0.00000     0.00000     0.00000     0.00000     0.00000     0.00000
  Total      30.12545    30.12545    30.12545    -0.09021    -0.09021    -0.09021
  in kB    1331.26953  1331.26953  1331.26953    -3.98659    -3.98659    -3.98659

 VOLUME and BASIS-vectors are now :
  energy-cutoff  :      400.00
  volume of cell :       36.26
      direct lattice vectors                 reciprocal lattice vectors
     4.170000000  2.085000000  2.085000000     0.359712230 -0.119904077 -0.119904077
     2.085000000  4.170000000  2.085000000    -0.119904077  0.359712230 -0.119904077
     2.085000000  2.085000000  4.170000000    -0.119904077 -0.119904077  0.359712230

  length of vectors
     5.107186114  5.107186114  5.107186114     0.397676833  0.397676833  0.397676833

 FORCES acting on ions
    electron-ion (+dipol)            ewald-force                    non-local-force                 convergence-correction
   -.154E-12 -.386E-13 0.240E-13   0.000E+00 -.284E-13 -.568E-13   0.635E-21 0.000E+00 0.000E+00   0.889E-12 -.658E-12 -.343E-12
   0.929E-12 0.217E-11 0.230E-11   0.568E-13 0.284E-13 0.000E+00   0.000E+00 0.000E+00 0.212E-21   -.593E-12 -.554E-12 -.601E-12
   -.510E-12 0.632E-12 0.630E-12   -.426E-13 -.131E-13 0.169E-13   -.159E-21 -.476E-21 0.529E-21   0.272E-12 0.304E-12 0.246E-12
   0.248E-11 -.109E-11 -.109E-11   -.152E-13 0.134E-13 0.426E-13   0.000E+00 0.212E-21 0.212E-21   -.428E-12 -.126E-12 -.891E-13
   0.275E-11 0.168E-11 0.186E-11   -.869E-15 0.280E-15 0.262E-14   0.476E-21 -.265E-21 0.953E-21   0.141E-12 -.103E-11 -.787E-12

 POSITION                                       TOTAL-FORCE (eV/Angst)
      0.00000      0.00000      0.00000        -0.000000     -0.000000     -0.000000
      4.17000      4.17000      4.17000         0.000000     -0.000000     -0.000000
      2.08500      2.08500      2.08500         0.000000      0.000000      0.000000
      6.25500      6.25500      6.25500         0.000000      0.000000      0.000000
    total drift:                                0.000000      0.000000      0.000000

  FREE ENERGIE OF THE ION-ELECTRON SYSTEM (eV)
  free  energy   TOTEN  =       -14.31246341 eV

  energy  without entropy=      -14.32080479  energy(sigma->0) =      -14.31524387

 total charge

[...]

 magnetization (x)

# of ion       s       p       d       tot
    1        0.004  -0.013   1.116   1.106
    2       -0.004   0.013  -1.116  -1.106
    3       -0.000  -0.000   0.000  -0.000
    4       -0.000   0.000   0.000   0.000
tot         -0.000   0.000  -0.000  -0.000