 vasp.5.4.4.18Apr17-6-g9f103f2a35 (build May 20 2018 16:52:39) complex

 executed on             LinuxIFC date 2022.11.04  19:29:57

 INCAR:
 POTCAR:   PAW_PBE C 08Apr2002
 POTCAR:   PAW_PBE C 08Apr2002
   VRHFIN =C: s2p2

   TITEL  = PAW_PBE C 08Apr2002
   POMASS =   12.011; ZVAL   =    4.000    mass and valenz
   ENMAX  =  400.000; ENMIN  =  300.000 eV
   QCUT   =   -5.516; QGAM   =   11.032    optimization parameters

   Description
     l     E      TYP  RCUT    TYP  RCUT
     0   .000     23  1.200
     0   .000     23  1.200
     1   .000     23  1.500
     1  2.500     23  1.500
     2   .000      7  1.500

 PAW_PBE C 08Apr2002                    :

 POSCAR: graphene
  positions in direct lattice
 exchange correlation table for  LEXCH =        8
   RHO(1)=    0.500       N(1)  =     2000
   RHO(2)=  100.500       N(2)  =     4000

 ion  position               nearest neighbor table
   1  0.000  0.000  0.000-   2 1.42   2 1.42   2 1.42
   2  0.667  0.667  0.000-   1 1.42   1 1.42   1 1.42

  LATTYP: Found a base centered orthorhombic cell.
 ALAT       =     2.4600000000
 B/A-ratio  =     1.7320000000
 C/A-ratio  =    20.0000000000

  Lattice vectors:

 A1 = (   2.1303600000,  -1.2300000000,   0.0000000000)
 A2 = (  -2.1303600000,  -1.2300000000,   0.0000000000)
 A3 = (   0.0000000000,   0.0000000000, -49.2000000000)

Analysis of symmetry for initial positions (statically):
 Subroutine PRICEL returns:
 Original cell was already a primitive cell.

 Routine SETGRP: Setting up the symmetry group for a
 base centered orthorhombic supercell.

 Subroutine GETGRP returns: Found  8 space group operations
 (whereof  4 operations were pure point group operations)
 out of a pool of  8 trial point group operations.

The static configuration has the point symmetry C_2v.
 The point group associated with its full space group is D_2h.

Analysis of symmetry for dynamics (positions and initial velocities):
 Subroutine PRICEL returns:
 Original cell was already a primitive cell.

 Routine SETGRP: Setting up the symmetry group for a
 base centered orthorhombic supercell.

 Subroutine GETGRP returns: Found  8 space group operations
 (whereof  4 operations were pure point group operations)
 out of a pool of  8 trial point group operations.

The dynamic configuration has the point symmetry C_2v.
 The point group associated with its full space group is D_2h.

 Subroutine INISYM returns: Found  8 space group operations
 (whereof  4 operations are pure point group operations),
 and found     1 'primitive' translations

 KPOINTS: 20*20*2

Automatic generation of k-mesh.
Space group operators:
 irot       det(A)        alpha          n_x          n_y          n_z        tau_x        tau_y        tau_z
    1     1.000000     0.000000     1.000000     0.000000     0.000000     0.000000     0.000000     0.000000
    2    -1.000000   180.000000     0.000000     0.000000     1.000000     0.000000     0.000000     0.000000
    3     1.000000   180.000000     1.000000     0.000000     0.000000     0.000000     0.000000     0.000000
    4    -1.000000   180.000000     0.000000     1.000000     0.000000     0.000000     0.000000     0.000000
    5    -1.000000     0.000000     1.000000     0.000000     0.000000     0.666700    -0.333300     0.000000
    6     1.000000   180.000000     0.000000     0.000000     1.000000     0.666700    -0.333300     0.000000
    7    -1.000000   180.000000     1.000000     0.000000     0.000000     0.666700    -0.333300     0.000000
    8     1.000000   180.000000     0.000000     1.000000     0.000000     0.666700    -0.333300     0.000000

 Subroutine IBZKPT returns following result:

 Found    222 irreducible k-points:

 Following reciprocal coordinates:
            Coordinates               Weight
  0.000000  0.000000  0.000000      1.000000
  0.050000  0.000000  0.000000      4.000000
  0.100000  0.000000  0.000000      4.000000
  0.150000  0.000000  0.000000      4.000000
  0.200000  0.000000  0.000000      4.000000
  0.250000  0.000000  0.000000      4.000000
  0.300000  0.000000  0.000000      4.000000
  0.350000  0.000000  0.000000      4.000000
  0.400000  0.000000  0.000000      4.000000
  0.450000  0.000000  0.000000      4.000000
  0.500000  0.000000  0.000000      2.000000
  0.050000  0.050000  0.000000      2.000000
  0.100000  0.050000  0.000000      4.000000
  0.150000  0.050000  0.000000      4.000000
  0.200000  0.050000  0.000000      4.000000
  0.250000  0.050000  0.000000      4.000000
  0.300000  0.050000  0.000000      4.000000
  0.350000  0.050000  0.000000      4.000000
  0.400000  0.050000  0.000000      4.000000
  0.450000  0.050000  0.000000      4.000000
  0.500000  0.050000  0.000000      4.000000
 -0.450000  0.050000  0.000000      4.000000
 -0.400000  0.050000  0.000000      4.000000
 -0.350000  0.050000  0.000000      4.000000
 -0.300000  0.050000  0.000000      4.000000
 -0.250000  0.050000  0.000000      4.000000
 -0.200000  0.050000  0.000000      4.000000
 -0.150000  0.050000  0.000000      4.000000
 -0.100000  0.050000  0.000000      4.000000
 -0.050000  0.050000  0.000000      2.000000
  0.100000  0.100000  0.000000      2.000000
  0.150000  0.100000  0.000000      4.000000
  0.200000  0.100000  0.000000      4.000000
  0.250000  0.100000  0.000000      4.000000
  0.300000  0.100000  0.000000      4.000000
  0.350000  0.100000  0.000000      4.000000
  0.400000  0.100000  0.000000      4.000000
  0.450000  0.100000  0.000000      4.000000
  0.500000  0.100000  0.000000      4.000000
 -0.450000  0.100000  0.000000      4.000000
 -0.400000  0.100000  0.000000      4.000000
 -0.350000  0.100000  0.000000      4.000000
 -0.300000  0.100000  0.000000      4.000000
 -0.250000  0.100000  0.000000      4.000000
 -0.200000  0.100000  0.000000      4.000000
 -0.150000  0.100000  0.000000      4.000000
 -0.100000  0.100000  0.000000      2.000000
  0.150000  0.150000  0.000000      2.000000
  0.200000  0.150000  0.000000      4.000000
  0.250000  0.150000  0.000000      4.000000
  0.300000  0.150000  0.000000      4.000000
  0.350000  0.150000  0.000000      4.000000
  0.400000  0.150000  0.000000      4.000000
  0.450000  0.150000  0.000000      4.000000
  0.500000  0.150000  0.000000      4.000000
 -0.450000  0.150000  0.000000      4.000000
 -0.400000  0.150000  0.000000      4.000000
 -0.350000  0.150000  0.000000      4.000000
 -0.300000  0.150000  0.000000      4.000000
 -0.250000  0.150000  0.000000      4.000000
[...]
  0.400000  0.350000  0.500000      4.000000
  0.450000  0.350000  0.500000      4.000000
  0.500000  0.350000  0.500000      4.000000
 -0.450000  0.350000  0.500000      4.000000
 -0.400000  0.350000  0.500000      4.000000
 -0.350000  0.350000  0.500000      2.000000
  0.400000  0.400000  0.500000      2.000000
  0.450000  0.400000  0.500000      4.000000
  0.500000  0.400000  0.500000      4.000000
 -0.450000  0.400000  0.500000      4.000000
 -0.400000  0.400000  0.500000      2.000000
  0.450000  0.450000  0.500000      2.000000
  0.500000  0.450000  0.500000      4.000000
 -0.450000  0.450000  0.500000      2.000000
  0.500000  0.500000  0.500000      1.000000

 Following cartesian coordinates:
            Coordinates               Weight
  0.000000  0.000000  0.000000      1.000000
  0.028868 -0.050000  0.000000      4.000000
  0.057737 -0.100000  0.000000      4.000000
  0.086605 -0.150000  0.000000      4.000000
  0.115473 -0.200000  0.000000      4.000000
  0.144342 -0.250000  0.000000      4.000000
  0.173210 -0.300000  0.000000      4.000000
  0.202079 -0.350000  0.000000      4.000000
  0.230947 -0.400000  0.000000      4.000000
  0.259815 -0.450000  0.000000      4.000000
  0.288684 -0.500000  0.000000      2.000000
  0.057737  0.000000  0.000000      2.000000
  0.086605 -0.050000  0.000000      4.000000
  0.115473 -0.100000  0.000000      4.000000
  0.144342 -0.150000  0.000000      4.000000
  0.173210 -0.200000  0.000000      4.000000
  0.202079 -0.250000  0.000000      4.000000
  0.230947 -0.300000  0.000000      4.000000
  0.259815 -0.350000  0.000000      4.000000
  0.288684 -0.400000  0.000000      4.000000
  0.317552 -0.450000  0.000000      4.000000
 -0.230947  0.500000  0.000000      4.000000
 -0.202079  0.450000  0.000000      4.000000
 -0.173210  0.400000  0.000000      4.000000
 -0.144342  0.350000  0.000000      4.000000
 -0.115473  0.300000  0.000000      4.000000
 -0.086605  0.250000  0.000000      4.000000
 -0.057737  0.200000  0.000000      4.000000
 -0.028868  0.150000  0.000000      4.000000
  0.000000  0.100000  0.000000      2.000000
  0.115473  0.000000  0.000000      2.000000
  0.144342 -0.050000  0.000000      4.000000
  0.173210 -0.100000  0.000000      4.000000
  0.202079 -0.150000  0.000000      4.000000
  0.230947 -0.200000  0.000000      4.000000
  0.259815 -0.250000  0.000000      4.000000
  0.288684 -0.300000  0.000000      4.000000
  0.317552 -0.350000  0.000000      4.000000
  0.346420 -0.400000  0.000000      4.000000
 -0.202079  0.550000  0.000000      4.000000
 -0.173210  0.500000  0.000000      4.000000
 -0.144342  0.450000  0.000000      4.000000
 -0.115473  0.400000  0.000000      4.000000
 -0.086605  0.350000  0.000000      4.000000
 -0.057737  0.300000  0.000000      4.000000
 -0.028868  0.250000  0.000000      4.000000
  0.000000  0.200000  0.000000      2.000000
  0.173210  0.000000  0.000000      2.000000
  0.202079 -0.050000  0.000000      4.000000
  0.230947 -0.100000  0.000000      4.000000
  0.259815 -0.150000  0.000000      4.000000
  0.288684 -0.200000  0.000000      4.000000
  0.317552 -0.250000  0.000000      4.000000
  0.346420 -0.300000  0.000000      4.000000
  0.375289 -0.350000  0.000000      4.000000
 -0.173210  0.600000  0.000000      4.000000
 -0.144342  0.550000  0.000000      4.000000
 -0.115473  0.500000  0.000000      4.000000
 -0.086605  0.450000  0.000000      4.000000
 -0.057737  0.400000  0.000000      4.000000
[...]
  0.433025 -0.050000  0.025000      4.000000
  0.461894 -0.100000  0.025000      4.000000
  0.490762 -0.150000  0.025000      4.000000
 -0.057737  0.800000  0.025000      4.000000
 -0.028868  0.750000  0.025000      4.000000
  0.000000  0.700000  0.025000      2.000000
  0.461894  0.000000  0.025000      2.000000
  0.490762 -0.050000  0.025000      4.000000
  0.519630 -0.100000  0.025000      4.000000
 -0.028868  0.850000  0.025000      4.000000
  0.000000  0.800000  0.025000      2.000000
  0.519630  0.000000  0.025000      2.000000
  0.548499 -0.050000  0.025000      4.000000
  0.000000  0.900000  0.025000      2.000000
  0.577367  0.000000  0.025000      1.000000

 TETIRR: Found   1200 inequivalent tetrahedra from     4800

 SYSTEM =  graphene (single layer)
 POSCAR =  graphene

 Startparameter for this run:
   NWRITE =      2    write-flag & timer
   PREC   = normal    normal or accurate (medium, high low for compatibility)
   ISTART =      0    job   : 0-new  1-cont  2-samecut
   ICHARG =      2    charge: 1-file 2-atom 10-const
   ISPIN  =      1    spin polarized calculation?
   LNONCOLLINEAR =      F non collinear calculations
   LSORBIT =      F    spin-orbit coupling
   INIWAV =      1    electr: 0-lowe 1-rand  2-diag
[...]
 k-point  4 :   0.1500 0.0000 0.0000  plane waves:    3116
 k-point  5 :   0.2000 0.0000 0.0000  plane waves:    3120
 k-point  6 :   0.2500 0.0000 0.0000  plane waves:    3104
 k-point  7 :   0.3000 0.0000 0.0000  plane waves:    3092
 k-point  8 :   0.3500 0.0000 0.0000  plane waves:    3072
 k-point  9 :   0.4000 0.0000 0.0000  plane waves:    3024
 k-point 10 :   0.4500 0.0000 0.0000  plane waves:    2990
 k-point 11 :   0.5000 0.0000 0.0000  plane waves:    2978
 k-point 12 :   0.0500 0.0500 0.0000  plane waves:    3090
 k-point 13 :   0.1000 0.0500 0.0000  plane waves:    3107
 k-point 14 :   0.1500 0.0500 0.0000  plane waves:    3110
 k-point 15 :   0.2000 0.0500 0.0000  plane waves:    3108
 k-point 16 :   0.2500 0.0500 0.0000  plane waves:    3110
 k-point 17 :   0.3000 0.0500 0.0000  plane waves:    3100
 k-point 18 :   0.3500 0.0500 0.0000  plane waves:    3088
 k-point 19 :   0.4000 0.0500 0.0000  plane waves:    3031
 k-point 20 :   0.4500 0.0500 0.0000  plane waves:    3006
 k-point 21 :   0.5000 0.0500 0.0000  plane waves:    2983
 k-point 22 :  -0.4500 0.0500 0.0000  plane waves:    2983
 k-point 23 :  -0.4000 0.0500 0.0000  plane waves:    3006
 k-point 24 :  -0.3500 0.0500 0.0000  plane waves:    3031
 k-point 25 :  -0.3000 0.0500 0.0000  plane waves:    3088
 k-point 26 :  -0.2500 0.0500 0.0000  plane waves:    3100
 k-point 27 :  -0.2000 0.0500 0.0000  plane waves:    3110
 k-point 28 :  -0.1500 0.0500 0.0000  plane waves:    3108
 k-point 29 :  -0.1000 0.0500 0.0000  plane waves:    3110
 k-point 30 :  -0.0500 0.0500 0.0000  plane waves:    3107
 k-point 31 :   0.1000 0.1000 0.0000  plane waves:    3104
 k-point 32 :   0.1500 0.1000 0.0000  plane waves:    3110
 k-point 33 :   0.2000 0.1000 0.0000  plane waves:    3109
 k-point 34 :   0.2500 0.1000 0.0000  plane waves:    3102
 k-point 35 :   0.3000 0.1000 0.0000  plane waves:    3102
 k-point 36 :   0.3500 0.1000 0.0000  plane waves:    3076
 k-point 37 :   0.4000 0.1000 0.0000  plane waves:    3052
 k-point 38 :   0.4500 0.1000 0.0000  plane waves:    3004
 k-point 39 :   0.5000 0.1000 0.0000  plane waves:    2993
 k-point 40 :  -0.4500 0.1000 0.0000  plane waves:    3006
 k-point 41 :  -0.4000 0.1000 0.0000  plane waves:    2993
 k-point 42 :  -0.3500 0.1000 0.0000  plane waves:    3004
 k-point 43 :  -0.3000 0.1000 0.0000  plane waves:    3052
 k-point 44 :  -0.2500 0.1000 0.0000  plane waves:    3076
 k-point 45 :  -0.2000 0.1000 0.0000  plane waves:    3102
 k-point 46 :  -0.1500 0.1000 0.0000  plane waves:    3102
 k-point 47 :  -0.1000 0.1000 0.0000  plane waves:    3109
 k-point 48 :   0.1500 0.1500 0.0000  plane waves:    3116
 k-point 49 :   0.2000 0.1500 0.0000  plane waves:    3108
 k-point 50 :   0.2500 0.1500 0.0000  plane waves:    3102
 k-point 51 :   0.3000 0.1500 0.0000  plane waves:    3087
 k-point 52 :   0.3500 0.1500 0.0000  plane waves:    3074
 k-point 53 :   0.4000 0.1500 0.0000  plane waves:    3054
 k-point 54 :   0.4500 0.1500 0.0000  plane waves:    3018
 k-point 55 :   0.5000 0.1500 0.0000  plane waves:    2989
 k-point 56 :  -0.4500 0.1500 0.0000  plane waves:    2998
 k-point 57 :  -0.4000 0.1500 0.0000  plane waves:    2998
 k-point 58 :  -0.3500 0.1500 0.0000  plane waves:    2989
 k-point 59 :  -0.3000 0.1500 0.0000  plane waves:    3018
 k-point 60 :  -0.2500 0.1500 0.0000  plane waves:    3054
[...]
 k-point 85 :  -0.3000 0.2500 0.0000  plane waves:    2982
 k-point 86 :  -0.2500 0.2500 0.0000  plane waves:    2979
 k-point 87 :   0.3000 0.3000 0.0000  plane waves:    3092
 k-point 88 :   0.3500 0.3000 0.0000  plane waves:    3088
 k-point 89 :   0.4000 0.3000 0.0000  plane waves:    3052
 k-point 90 :   0.4500 0.3000 0.0000  plane waves:    3018
 k-point 91 :   0.5000 0.3000 0.0000  plane waves:    2994
 k-point 92 :  -0.4500 0.3000 0.0000  plane waves:    2982
 k-point 93 :  -0.4000 0.3000 0.0000  plane waves:    2952
 k-point 94 :  -0.3500 0.3000 0.0000  plane waves:    2954
 k-point 95 :  -0.3000 0.3000 0.0000  plane waves:    2952
 k-point 96 :   0.3500 0.3500 0.0000  plane waves:    3072
 k-point 97 :   0.4000 0.3500 0.0000  plane waves:    3031
 k-point 98 :   0.4500 0.3500 0.0000  plane waves:    3004
 k-point 99 :   0.5000 0.3500 0.0000  plane waves:    2989
 k-point ** :  -0.4500 0.3500 0.0000  plane waves:    2998
 k-point ** :  -0.4000 0.3500 0.0000  plane waves:    2982
 k-point ** :  -0.3500 0.3500 0.0000  plane waves:    2954
 k-point ** :   0.4000 0.4000 0.0000  plane waves:    3024
 k-point ** :   0.4500 0.4000 0.0000  plane waves:    3006
 k-point ** :   0.5000 0.4000 0.0000  plane waves:    2993
 k-point ** :  -0.4500 0.4000 0.0000  plane waves:    2998
 k-point ** :  -0.4000 0.4000 0.0000  plane waves:    3012
 k-point ** :   0.4500 0.4500 0.0000  plane waves:    2990
 k-point ** :   0.5000 0.4500 0.0000  plane waves:    2983
 k-point ** :  -0.4500 0.4500 0.0000  plane waves:    3006
 k-point ** :   0.5000 0.5000 0.0000  plane waves:    2978
 k-point ** :   0.0000 0.0000 0.5000  plane waves:    3090
 k-point ** :   0.0500 0.0000 0.5000  plane waves:    3088
 k-point ** :   0.1000 0.0000 0.5000  plane waves:    3114
 k-point ** :   0.1500 0.0000 0.5000  plane waves:    3120
 k-point ** :   0.2000 0.0000 0.5000  plane waves:    3116
 k-point ** :   0.2500 0.0000 0.5000  plane waves:    3112
 k-point ** :   0.3000 0.0000 0.5000  plane waves:    3090
 k-point ** :   0.3500 0.0000 0.5000  plane waves:    3066
 k-point ** :   0.4000 0.0000 0.5000  plane waves:    3022
 k-point ** :   0.4500 0.0000 0.5000  plane waves:    2994
 k-point ** :   0.5000 0.0000 0.5000  plane waves:    2976
 k-point ** :   0.0500 0.0500 0.5000  plane waves:    3088
 k-point ** :   0.1000 0.0500 0.5000  plane waves:    3096
 k-point ** :   0.1500 0.0500 0.5000  plane waves:    3104
 k-point ** :   0.2000 0.0500 0.5000  plane waves:    3112
 k-point ** :   0.2500 0.0500 0.5000  plane waves:    3112
 k-point ** :   0.3000 0.0500 0.5000  plane waves:    3100
 k-point ** :   0.3500 0.0500 0.5000  plane waves:    3080
 k-point ** :   0.4000 0.0500 0.5000  plane waves:    3040
 k-point ** :   0.4500 0.0500 0.5000  plane waves:    3004
 k-point ** :   0.5000 0.0500 0.5000  plane waves:    2984
 k-point ** :  -0.4500 0.0500 0.5000  plane waves:    2984
 k-point ** :  -0.4000 0.0500 0.5000  plane waves:    3004
 k-point ** :  -0.3500 0.0500 0.5000  plane waves:    3040
 k-point ** :  -0.3000 0.0500 0.5000  plane waves:    3080
 k-point ** :  -0.2500 0.0500 0.5000  plane waves:    3100
 k-point ** :  -0.2000 0.0500 0.5000  plane waves:    3112
 k-point ** :  -0.1500 0.0500 0.5000  plane waves:    3112
 k-point ** :  -0.1000 0.0500 0.5000  plane waves:    3104
 k-point ** :  -0.0500 0.0500 0.5000  plane waves:    3096
 k-point ** :   0.1000 0.1000 0.5000  plane waves:    3114
 k-point ** :   0.1500 0.1000 0.5000  plane waves:    3104
 k-point ** :   0.2000 0.1000 0.5000  plane waves:    3096
 k-point ** :   0.2500 0.1000 0.5000  plane waves:    3106
 k-point ** :   0.3000 0.1000 0.5000  plane waves:    3102
 k-point ** :   0.3500 0.1000 0.5000  plane waves:    3092
 k-point ** :   0.4000 0.1000 0.5000  plane waves:    3050
 k-point ** :   0.4500 0.1000 0.5000  plane waves:    3004
 k-point ** :   0.5000 0.1000 0.5000  plane waves:    2994
 k-point ** :  -0.4500 0.1000 0.5000  plane waves:    2996
 k-point ** :  -0.4000 0.1000 0.5000  plane waves:    2994
 k-point ** :  -0.3500 0.1000 0.5000  plane waves:    3004
 k-point ** :  -0.3000 0.1000 0.5000  plane waves:    3050
 k-point ** :  -0.2500 0.1000 0.5000  plane waves:    3092
 k-point ** :  -0.2000 0.1000 0.5000  plane waves:    3102
 k-point ** :  -0.1500 0.1000 0.5000  plane waves:    3106
 k-point ** :  -0.1000 0.1000 0.5000  plane waves:    3096
 k-point ** :   0.1500 0.1500 0.5000  plane waves:    3120
[...]
 k-point ** :   0.4000 0.3500 0.5000  plane waves:    3040
 k-point ** :   0.4500 0.3500 0.5000  plane waves:    3004
 k-point ** :   0.5000 0.3500 0.5000  plane waves:    2996
 k-point ** :  -0.4500 0.3500 0.5000  plane waves:    2992
 k-point ** :  -0.4000 0.3500 0.5000  plane waves:    2984
 k-point ** :  -0.3500 0.3500 0.5000  plane waves:    2952
 k-point ** :   0.4000 0.4000 0.5000  plane waves:    3022
 k-point ** :   0.4500 0.4000 0.5000  plane waves:    3004
 k-point ** :   0.5000 0.4000 0.5000  plane waves:    2994
 k-point ** :  -0.4500 0.4000 0.5000  plane waves:    3002
 k-point ** :  -0.4000 0.4000 0.5000  plane waves:    2994
 k-point ** :   0.4500 0.4500 0.5000  plane waves:    2994
 k-point ** :   0.5000 0.4500 0.5000  plane waves:    2984
 k-point ** :  -0.4500 0.4500 0.5000  plane waves:    2996
 k-point ** :   0.5000 0.5000 0.5000  plane waves:    2976

 maximum and minimum number of plane-waves per node :      3120     2952

 maximum number of plane-waves:      3120
 maximum index in each direction:
   IXMAX=    3   IYMAX=    3   IZMAX=   69
   IXMIN=   -3   IYMIN=   -3   IZMIN=  -69

 serial   3D FFT for wavefunctions
 parallel 3D FFT for charge:
    minimum data exchange during FFTs selected (reduces bandwidth)

 Broyden mixing: mesh for mixing (old mesh)
   NGX =  7   NGY =  7   NGZ =139
  (NGX  = 20   NGY  = 20   NGZ  =420)
  gives a total of   6811 points

 initial charge density was supplied:
 charge density of overlapping atoms calculated
 number of electron       8.0000000 magnetization
 keeping initial charge density in first step

 Maximum index for augmentation-charges          947 (set IRDMAX)

 First call to EWALD:  gamma=   0.278
 Maximum number of real-space cells 7x 7x 1
 Maximum number of reciprocal cells 1x 1x18

--------------------------------------- Iteration      1(   1)  ---------------------------------------

 BZINTS: Fermi energy:  0.416581;  8.000000 electrons
         Band energy:-109.124360;  BLOECHL correction: -0.900742

 eigenvalue-minimisations  :  6056
 total energy-change (2. order) : 0.1011070E+02  (-0.2601412E+03)
 number of electron       8.0000000 magnetization
 augmentation part        8.0000000 magnetization

 Free energy of the ion-electron system (eV)
  alpha Z        PSCENC =         1.26403377
  Ewald energy   TEWEN  =      3991.07545412
  -Hartree energ DENC   =     -4192.19146066
  -exchange      EXHF   =         0.00000000
  -V(xc)+E(xc)   XCENC  =        27.58818228
  PAW double counting   =        75.66288619      -77.96384553
  entropy T*S    EENTRO =         0.00000000
  eigenvalues    EBANDS =      -109.12436026
  atomic energy  EATOM  =       293.79980732
  Solvation  Ediel_sol  =         0.00000000
  free energy    TOTEN  =        10.11069722 eV

  energy without entropy =       10.11069722  energy(sigma->0) =       10.11069722

[...]

 eigenvalue-minimisations  :  5424
 total energy-change (2. order) :-0.2763110E+02  (-0.2561365E+02)
 number of electron       8.0000000 magnetization
 augmentation part        8.0000000 magnetization

[...]

 Broyden mixing:
  rms(total) = 0.54172E+00    rms(broyden)= 0.54130E+00
  rms(prec ) = 0.54956E+00
  weight for this iteration     100.00

[...]

 eigenvalues of (default mixing * dielectric matrix)
  average eigenvalue GAMMA=   2.0924
  2.0924

[...]

 eigenvalue-minimisations  :  5584
 total energy-change (2. order) : 0.1128647E-02  (-0.1527404E-03)
 number of electron       7.9999990 magnetization
 augmentation part        0.1788733 magnetization

[...]

 Broyden mixing:
  rms(total) = 0.97893E-05    rms(broyden)= 0.97510E-05
  rms(prec ) = 0.11058E-04
  weight for this iteration     100.00

 eigenvalues of (default mixing * dielectric matrix)
  average eigenvalue GAMMA=   3.3199
  9.3096  7.4057  5.1110  4.3395  2.9964  2.9964  2.5210  2.4554  2.0189  1.0120
  1.0120  0.9906  0.9906

[...]

--------------------------------------- Iteration      1(  19)  ---------------------------------------

 BZINTS: Fermi energy: -4.022855;  8.000000 electrons
         Band energy:-102.747502;  BLOECHL correction:  0.000000

 eigenvalue-minimisations  :  5344
 total energy-change (2. order) :-0.7222453E-06  (-0.7273878E-09)
 number of electron       7.9999990 magnetization
 augmentation part        0.1787452 magnetization

 Free energy of the ion-electron system (eV)
  alpha Z        PSCENC =         1.26403377
  Ewald energy   TEWEN  =      3991.07545412
  -Hartree energ DENC   =     -4228.23299845
  -exchange      EXHF   =         0.00000000
  -V(xc)+E(xc)   XCENC  =        28.78505487
  PAW double counting   =       139.68040109     -142.15032386
  entropy T*S    EENTRO =         0.00000000
  eigenvalues    EBANDS =      -102.74750184
  atomic energy  EATOM  =       293.79980732
  Solvation  Ediel_sol  =         0.00000000
  free energy    TOTEN  =       -18.52607299 eV

  energy without entropy =      -18.52607299  energy(sigma->0) =      -18.52607299

 average (electrostatic) potential at core
  the test charge radii are     0.6991
  (the norm of the test charge is              1.0000)
       1 -59.2978       2 -59.2982

 E-fermi :  -4.0229     XC(G=0):  -1.1216     alpha+bet : -0.7787

 k-point     1 :       0.0000    0.0000    0.0000
  band No.  band energies     occupation
      1     -23.2942      2.00000
      2     -11.3185      2.00000
      3      -6.6863      2.00000
      4      -6.6856      2.00000
      5      -0.4037      0.00000
      6       0.2340      0.00000
      7       0.3560      0.00000
      8       0.4492      0.00000

[...]

 k-point   222 :       0.5000    0.5000    0.5000
  band No.  band energies     occupation
      1     -18.0155      2.00000
      2     -16.9646      2.00000
      3     -10.0884      2.00000
      4      -6.0057      2.00000
      5      -1.9304      0.00000
      6       3.7674      0.00000
      7       7.5122      0.00000
      8       7.6667      0.00000

 soft charge-density along one line, spin component           1
         0         1         2         3         4         5         6         7         8         9
 total charge-density along one line

------------------------ aborting loop because EDIFF is reached ----------------------------------------

  FORCE on cell =-STRESS in cart. coord.  units (eV):
  Direction    XX          YY          ZZ          XY          YZ          ZX
  Alpha Z     1.26403     1.26403     1.26403
  Ewald    4260.64116  4260.57459 -4530.14061    -0.00000     0.00000     0.00000
  Hartree  4217.09521  4217.08510 -4205.94481     0.00000    -0.00000    -0.00000
  E(xc)     -29.19934   -29.19917   -30.37486    -0.00000    -0.00000    -0.00000
  Local   -8563.52695 -8563.37287  8632.86661     0.00000    -0.00000     0.00000
  n-local    -6.90390    -6.90667    -6.28569     0.25519    -0.00000    -0.00000
  augment    -0.71452    -0.71432    -0.65968     0.00000    -0.00000     0.00000
  Kinetic   120.00611   120.02436   137.11926    -2.19544     0.00000     0.00000
  Fock        0.00000     0.00000     0.00000     0.00000     0.00000     0.00000
  Total      -1.33818    -1.24495    -2.15575     0.00000     0.00000     0.00000
  in kB      -8.31519    -7.73585   -13.39540     0.00000     0.00000     0.00000

 VOLUME and BASIS-vectors are now :
  energy-cutoff  :      300.00
  volume of cell :      257.84
      direct lattice vectors                 reciprocal lattice vectors
     2.130360000 -1.230000000  0.000000000     0.234702116 -0.406504065  0.000000000
     2.130360000  1.230000000  0.000000000     0.234702116  0.406504065  0.000000000
     0.000000000  0.000000000 49.200000000     0.000000000  0.000000000  0.020325203

  length of vectors
     2.459945879  2.459945879 49.200000000     0.469393905  0.469393905  0.020325203

 FORCES acting on ions
    electron-ion (+dipol)            ewald-force                    non-local-force                 convergence-correction
   -.329E-01 -.226E-14 -.377E-16   0.319E-01 -.464E-14 0.000E+00   0.458E-02 0.000E+00 0.000E+00   0.490E-05 0.423E-16 -.149E-12
   0.329E-01 -.146E-13 -.534E-15   -.319E-01 0.127E-13 0.000E+00   -.458E-02 0.000E+00 0.000E+00   -.490E-05 0.505E-15 -.149E-12
   -.331E-04 -.169E-13 -.572E-15   -.153E-13 0.810E-14 0.000E+00   0.000E+00 0.000E+00 0.000E+00   -.307E-11 0.548E-15 -.297E-12

 POSITION                                       TOTAL-FORCE (eV/Angst)
      0.00000      0.00000      0.00000         0.003605      0.000000      0.000000
      2.84062      0.00000      0.00000        -0.003605      0.000000      0.000000
    total drift:                               -0.000033     -0.000000     -0.000000

  FREE ENERGIE OF THE ION-ELECTRON SYSTEM (eV)
  free  energy   TOTEN  =       -18.52607299 eV

  energy  without entropy=      -18.52607299  energy(sigma->0) =      -18.52607299

 writing wavefunctions
 BZINTS: Fermi energy: -4.022855;  8.000000 electrons
         Band energy:-102.747502;  BLOECHL correction:  0.000000