 vasp.5.4.4.18Apr17-6-g9f103f2a35 (build May 20 2018 16:52:39) complex

 executed on             LinuxIFC date 2022.10.21  21:03:32

 INCAR:
 POTCAR:    PAW Si
 POTCAR:    PAW Si
   VRHFIN =Si: s2p2

   TITEL  = PAW Si
   POMASS =   28.085; ZVAL   =    4.000    mass and valenz
   ENMAX  =  245.435; ENMIN  =  184.076 eV
   QCUT   =   -4.247; QGAM   =    8.494    optimization parameters

   Description
     l     E      TYP  RCUT    TYP  RCUT
     0   .000     23  1.900
     0   .000     23  1.900
     1   .000     23  1.900
     1   .000     23  1.900
     2   .000      7  1.900

  PAW Si                                :

 POSCAR: Si
  positions in direct lattice
  velocities in cartesian coordinates
 exchange correlation table for  LEXCH =        7
   RHO(1)=    0.500       N(1)  =     2000
   RHO(2)=  100.500       N(2)  =     4000

 ion  position               nearest neighbor table
   1  0.000  0.000  0.000-   2 2.36   2 2.36   2 2.36   2 2.36
   2  0.250  0.250  0.250-   1 2.36   1 2.36   1 2.36   1 2.36

  LATTYP: Found a face centered cubic cell.
 ALAT       =     5.4613726379

  Lattice vectors:

 A1 = (   2.7306863189,   2.7306863189,   0.0000000000)
 A2 = (   0.0000000000,   2.7306863189,   2.7306863189)
 A3 = (   2.7306863189,   0.0000000000,   2.7306863189)

Analysis of symmetry for initial positions (statically):
 Subroutine PRICEL returns:
 Original cell was already a primitive cell.

 Routine SETGRP: Setting up the symmetry group for a
 face centered cubic supercell.

 Subroutine GETGRP returns: Found 48 space group operations
 (whereof 24 operations were pure point group operations)
 out of a pool of 48 trial point group operations.

The static configuration has the point symmetry T_d .
 The point group associated with its full space group is O_h .

Analysis of symmetry for dynamics (positions and initial velocities):
 Subroutine PRICEL returns:
 Original cell was already a primitive cell.

 Routine SETGRP: Setting up the symmetry group for a
 face centered cubic supercell.

 Subroutine GETGRP returns: Found 48 space group operations
 (whereof 24 operations were pure point group operations)
 out of a pool of 48 trial point group operations.

The dynamic configuration has the point symmetry T_d .
 The point group associated with its full space group is O_h .

 Subroutine INISYM returns: Found 48 space group operations
 (whereof 24 operations are pure point group operations),
 and found     1 'primitive' translations

 KPOINTS: K-points along high symmetry lines for F
  interpolating k-points between supplied coordinates
  k-points in reciprocal lattice
Space group operators:
 irot       det(A)        alpha          n_x          n_y          n_z        tau_x        tau_y        tau_z
    1     1.000000     0.000000     1.000000     0.000000     0.000000     0.000000     0.000000     0.000000
    2     1.000000   120.000000    -0.577350    -0.577350    -0.577350     0.000000     0.000000     0.000000
    3     1.000000   120.000000     0.577350     0.577350     0.577350     0.000000     0.000000     0.000000
    4    -1.000000    90.000000     0.000000    -1.000000     0.000000     0.000000     0.000000     0.000000
    5    -1.000000   180.000000     0.707107     0.707107     0.000000     0.000000     0.000000     0.000000
    6    -1.000000    90.000000     1.000000     0.000000     0.000000     0.000000     0.000000     0.000000
    7     1.000000   180.000000     0.000000     1.000000     0.000000     0.000000     0.000000     0.000000
    8     1.000000   120.000000     0.577350     0.577350    -0.577350     0.000000     0.000000     0.000000
    9     1.000000   120.000000     0.577350    -0.577350    -0.577350     0.000000     0.000000     0.000000
   10    -1.000000    90.000000     0.000000     1.000000     0.000000     0.000000     0.000000     0.000000
   11    -1.000000    90.000000     0.000000     0.000000    -1.000000     0.000000     0.000000     0.000000
   12    -1.000000   180.000000     0.000000     0.707107     0.707107     0.000000     0.000000     0.000000
   13     1.000000   120.000000    -0.577350     0.577350     0.577350     0.000000     0.000000     0.000000
   14     1.000000   120.000000    -0.577350     0.577350    -0.577350     0.000000     0.000000     0.000000
   15     1.000000   180.000000     0.000000     0.000000     1.000000     0.000000     0.000000     0.000000
   16    -1.000000    90.000000    -1.000000     0.000000     0.000000     0.000000     0.000000     0.000000
   17    -1.000000   180.000000     0.707107     0.000000     0.707107     0.000000     0.000000     0.000000
   18    -1.000000    90.000000     0.000000     0.000000     1.000000     0.000000     0.000000     0.000000
   19     1.000000   120.000000    -0.577350    -0.577350     0.577350     0.000000     0.000000     0.000000
   20     1.000000   180.000000     1.000000     0.000000     0.000000     0.000000     0.000000     0.000000
   21     1.000000   120.000000     0.577350    -0.577350     0.577350     0.000000     0.000000     0.000000
   22    -1.000000   180.000000     0.707107    -0.707107     0.000000     0.000000     0.000000     0.000000
   23    -1.000000   180.000000     0.707107     0.000000    -0.707107     0.000000     0.000000     0.000000
   24    -1.000000   180.000000     0.000000    -0.707107     0.707107     0.000000     0.000000     0.000000
   25    -1.000000     0.000000     1.000000     0.000000     0.000000     0.250000     0.250000     0.250000
   26    -1.000000   120.000000    -0.577350    -0.577350    -0.577350     0.250000     0.250000     0.250000
   27    -1.000000   120.000000     0.577350     0.577350     0.577350     0.250000     0.250000     0.250000
   28     1.000000    90.000000     0.000000    -1.000000     0.000000     0.250000     0.250000     0.250000
   29     1.000000   180.000000     0.707107     0.707107     0.000000     0.250000     0.250000     0.250000
   30     1.000000    90.000000     1.000000     0.000000     0.000000     0.250000     0.250000     0.250000
   31    -1.000000   180.000000     0.000000     1.000000     0.000000     0.250000     0.250000     0.250000
   32    -1.000000   120.000000     0.577350     0.577350    -0.577350     0.250000     0.250000     0.250000
   33    -1.000000   120.000000     0.577350    -0.577350    -0.577350     0.250000     0.250000     0.250000
   34     1.000000    90.000000     0.000000     1.000000     0.000000     0.250000     0.250000     0.250000
   35     1.000000    90.000000     0.000000     0.000000    -1.000000     0.250000     0.250000     0.250000
   36     1.000000   180.000000     0.000000     0.707107     0.707107     0.250000     0.250000     0.250000
   37    -1.000000   120.000000    -0.577350     0.577350     0.577350     0.250000     0.250000     0.250000
   38    -1.000000   120.000000    -0.577350     0.577350    -0.577350     0.250000     0.250000     0.250000
   39    -1.000000   180.000000     0.000000     0.000000     1.000000     0.250000     0.250000     0.250000
   40     1.000000    90.000000    -1.000000     0.000000     0.000000     0.250000     0.250000     0.250000
   41     1.000000   180.000000     0.707107     0.000000     0.707107     0.250000     0.250000     0.250000
   42     1.000000    90.000000     0.000000     0.000000     1.000000     0.250000     0.250000     0.250000
   43    -1.000000   120.000000    -0.577350    -0.577350     0.577350     0.250000     0.250000     0.250000
   44    -1.000000   180.000000     1.000000     0.000000     0.000000     0.250000     0.250000     0.250000
   45    -1.000000   120.000000     0.577350    -0.577350     0.577350     0.250000     0.250000     0.250000
   46     1.000000   180.000000     0.707107    -0.707107     0.000000     0.250000     0.250000     0.250000
   47     1.000000   180.000000     0.707107     0.000000    -0.707107     0.250000     0.250000     0.250000
   48     1.000000   180.000000     0.000000    -0.707107     0.707107     0.250000     0.250000     0.250000

 SYSTEM =  Si
 POSCAR =  Si

 Startparameter for this run:
   NWRITE =      2    write-flag & timer
   PREC   = normal    normal or accurate (medium, high low for compatibility)
   ISTART =      0    job   : 0-new  1-cont  2-samecut
   ICHARG =     11    charge: 1-file 2-atom 10-const
   ISPIN  =      1    spin polarized calculation?
   LNONCOLLINEAR =      F non collinear calculations
   LSORBIT =      F    spin-orbit coupling
   INIWAV =      1    electr: 0-lowe 1-rand  2-diag
   LASPH  =      F    aspherical Exc in radial PAW
   METAGGA=      F    non-selfconsistent MetaGGA calc.

 Electronic Relaxation 1
   ENCUT  =  245.4 eV  18.04 Ry    4.25 a.u.   4.93  4.93  4.93*2*pi/ulx,y,z
   ENINI  =  245.4     initial cutoff
   ENAUG  =  322.1 eV  augmentation charge cutoff
   NELM   =     60;   NELMIN=  2; NELMDL= -5     # of ELM steps
   EDIFF  = 0.1E-05   stopping-criterion for ELM
   LREAL  =      F    real-space projection
   NLSPLINE    = F    spline interpolate recip. space projectors
   LCOMPAT=      F    compatible to vasp.4.4
   GGA_COMPAT  = T    GGA compatible to vasp.4.4-vasp.4.6
   LMAXPAW     = -100 max onsite density
   LMAXMIX     =    2 max onsite mixed and CHGCAR
   VOSKOWN=      0    Vosko Wilk Nusair interpolation
   ROPT   =    0.00000
 Ionic relaxation
   EDIFFG = 0.1E-04   stopping-criterion for IOM
   NSW    =      0    number of steps for IOM
   NBLOCK =      1;   KBLOCK =      1    inner block; outer block
   IBRION =     -1    ionic relax: 0-MD 1-quasi-New 2-CG
   NFREE  =      0    steps in history (QN), initial steepest desc. (CG)
   ISIF   =      2    stress and relaxation
   IWAVPR =     10    prediction:  0-non 1-charg 2-wave 3-comb
   ISYM   =      2    0-nonsym 1-usesym 2-fastsym
   LCORR  =      T    Harris-Foulkes like correction to forces

   POTIM  = 0.5000    time-step for ionic-motion
   TEIN   =    0.0    initial temperature
   TEBEG  =    0.0;   TEEND  =   0.0 temperature during run
   SMASS  =  -3.00    Nose mass-parameter (am)
   estimated Nose-frequenzy (Omega)   =  0.10E-29 period in steps =****** mass=  -0.341E-27a.u.
   SCALEE = 1.0000    scale energy and forces
   NPACO  =    256;   APACO  = 16.0  distance and # of slots for P.C.
   PSTRESS=    0.0 pullay stress

  Mass of Ions in am
   POMASS =  28.09
  Ionic Valenz
   ZVAL   =   4.00
  Atomic Wigner-Seitz radii
  virtual crystal weights
   VCA    =   1.00
   NELECT =       8.0000    total number of electrons
   NUPDOWN=      -1.0000    fix difference up-down

 DOS related values:
   EMIN   =  10.00;   EMAX   =-10.00  energy-range for DOS
   EFERMI =   0.00
   ISMEAR =     1;   SIGMA  =   0.20  broadening in eV -4-tet -1-fermi 0-gaus

 Electronic relaxation 2 (details)
   IALGO  =     38    algorithm
   LDIAG  =      T    sub-space diagonalisation (order eigenvalues)
   LSUBROT=      F    optimize rotation matrix (better conditioning)
   TURBO    =      0    0=normal 1=particle mesh
   IRESTART =      0    0=no restart 2=restart with 2 vectors
   NREBOOT  =      0    no. of reboots
   NMIN     =      0    reboot dimension
   EREF     =   0.00    reference energy to select bands
[...]
   0.45101444  0.00000000  0.00000000       0.010
   0.48859897  0.00000000  0.00000000       0.010
   0.52618351  0.00000000  0.00000000       0.010
   0.56376804  0.00000000  0.00000000       0.010
   0.60135258  0.00000000  0.00000000       0.010
   0.63893712  0.00000000  0.00000000       0.010
   0.67652165  0.00000000  0.00000000       0.010
   0.71410619  0.00000000  0.00000000       0.010
[...]
   0.71410619  0.00000000  0.26309175       0.010
   0.71410619  0.00000000  0.24429949       0.010
   0.71410619 -0.00000000  0.22550722       0.010
   0.71410619  0.00000000  0.20671495       0.010
   0.71410619  0.00000000  0.18792268       0.010
   0.71410619  0.00000000  0.16913041       0.010
   0.71410619  0.00000000  0.15033815       0.010
   0.71410619  0.00000000  0.13154588       0.010
   0.71410619  0.00000000  0.11275361       0.010
   0.71410619  0.00000000  0.09396134       0.010
   0.71410619  0.00000000  0.07516907       0.010
   0.71410619  0.00000000  0.05637680       0.010
   0.71410619  0.00000000  0.03758454       0.010
   0.71410619  0.00000000  0.01879227       0.010
   0.71410619  0.00000000  0.00000000       0.010

 k-points in reciprocal lattice and weights: K-points along high symmetry lines for F
   0.50000000  0.25000000  0.75000000       0.010
   0.50000000  0.26315789  0.73684211       0.010
   0.50000000  0.27631579  0.72368421       0.010
   0.50000000  0.28947368  0.71052632       0.010
   0.50000000  0.30263158  0.69736842       0.010
   0.50000000  0.31578947  0.68421053       0.010
   0.50000000  0.32894737  0.67105263       0.010
   0.50000000  0.34210526  0.65789474       0.010
   0.50000000  0.35526316  0.64473684       0.010
   0.50000000  0.36842105  0.63157895       0.010
   0.50000000  0.38157895  0.61842105       0.010
   0.50000000  0.39473684  0.60526316       0.010
   0.50000000  0.40789474  0.59210526       0.010
   0.50000000  0.42105263  0.57894737       0.010
   0.50000000  0.43421053  0.56578947       0.010
   0.50000000  0.44736842  0.55263158       0.010
   0.50000000  0.46052632  0.53947368       0.010
   0.50000000  0.47368421  0.52631579       0.010
   0.50000000  0.48684211  0.51315789       0.010
   0.50000000  0.50000000  0.50000000       0.010
   0.50000000  0.50000000  0.50000000       0.010
   0.47368421  0.47368421  0.47368421       0.010
   0.44736842  0.44736842  0.44736842       0.010
   0.42105263  0.42105263  0.42105263       0.010
   0.39473684  0.39473684  0.39473684       0.010
   0.36842105  0.36842105  0.36842105       0.010
   0.34210526  0.34210526  0.34210526       0.010
   0.31578947  0.31578947  0.31578947       0.010
   0.28947368  0.28947368  0.28947368       0.010
   0.26315789  0.26315789  0.26315789       0.010
   0.23684211  0.23684211  0.23684211       0.010
   0.21052632  0.21052632  0.21052632       0.010
   0.18421053  0.18421053  0.18421053       0.010
   0.15789474  0.15789474  0.15789474       0.010
   0.13157895  0.13157895  0.13157895       0.010
   0.10526316  0.10526316  0.10526316       0.010
   0.07894737  0.07894737  0.07894737       0.010
   0.05263158  0.05263158  0.05263158       0.010
   0.02631579  0.02631579  0.02631579       0.010
   0.00000000  0.00000000  0.00000000       0.010
   0.00000000  0.00000000  0.00000000       0.010
   0.02631579  0.00000000  0.02631579       0.010
   0.05263158  0.00000000  0.05263158       0.010
   0.07894737  0.00000000  0.07894737       0.010
   0.10526316  0.00000000  0.10526316       0.010
   0.13157895  0.00000000  0.13157895       0.010
   0.15789474  0.00000000  0.15789474       0.010
   0.18421053  0.00000000  0.18421053       0.010
   0.21052632  0.00000000  0.21052632       0.010
   0.23684211  0.00000000  0.23684211       0.010
   0.26315789  0.00000000  0.26315789       0.010
   0.28947368  0.00000000  0.28947368       0.010
   0.31578947  0.00000000  0.31578947       0.010
   0.34210526  0.00000000  0.34210526       0.010
   0.36842105  0.00000000  0.36842105       0.010
   0.39473684  0.00000000  0.39473684       0.010
   0.42105263  0.00000000  0.42105263       0.010
   0.44736842  0.00000000  0.44736842       0.010
   0.47368421  0.00000000  0.47368421       0.010
   0.50000000  0.00000000  0.50000000       0.010
[...]
   0.50000000  0.18421053  0.68421053       0.010
   0.50000000  0.17105263  0.67105263       0.010
   0.50000000  0.15789474  0.65789474       0.010
   0.50000000  0.14473684  0.64473684       0.010
   0.50000000  0.13157895  0.63157895       0.010
   0.50000000  0.11842105  0.61842105       0.010
   0.50000000  0.10526316  0.60526316       0.010
   0.50000000  0.09210526  0.59210526       0.010
   0.50000000  0.07894737  0.57894737       0.010
   0.50000000  0.06578947  0.56578947       0.010
   0.50000000  0.05263158  0.55263158       0.010
   0.50000000  0.03947368  0.53947368       0.010
   0.50000000  0.02631579  0.52631579       0.010
   0.50000000  0.01315789  0.51315789       0.010
   0.50000000  0.00000000  0.50000000       0.010

 position of ions in fractional coordinates (direct lattice)
   0.00000000  0.00000000  0.00000000
   0.25000000  0.25000000  0.25000000

 position of ions in cartesian coordinates  (Angst):
   0.00000000  0.00000000  0.00000000
   1.36534316  1.36534316  1.36534316

 k-point  1 :   0.5000 0.2500 0.7500  plane waves:     360
 k-point  2 :   0.5000 0.2632 0.7368  plane waves:     360
 k-point  3 :   0.5000 0.2763 0.7237  plane waves:     366
 k-point  4 :   0.5000 0.2895 0.7105  plane waves:     364
 k-point  5 :   0.5000 0.3026 0.6974  plane waves:     366
 k-point  6 :   0.5000 0.3158 0.6842  plane waves:     366
 k-point  7 :   0.5000 0.3289 0.6711  plane waves:     366
 k-point  8 :   0.5000 0.3421 0.6579  plane waves:     366
 k-point  9 :   0.5000 0.3553 0.6447  plane waves:     366
 k-point 10 :   0.5000 0.3684 0.6316  plane waves:     358
 k-point 11 :   0.5000 0.3816 0.6184  plane waves:     362
 k-point 12 :   0.5000 0.3947 0.6053  plane waves:     362
 k-point 13 :   0.5000 0.4079 0.5921  plane waves:     360
 k-point 14 :   0.5000 0.4211 0.5789  plane waves:     358
 k-point 15 :   0.5000 0.4342 0.5658  plane waves:     356
 k-point 16 :   0.5000 0.4474 0.5526  plane waves:     358
 k-point 17 :   0.5000 0.4605 0.5395  plane waves:     356
 k-point 18 :   0.5000 0.4737 0.5263  plane waves:     356
 k-point 19 :   0.5000 0.4868 0.5132  plane waves:     356
 k-point 20 :   0.5000 0.5000 0.5000  plane waves:     344
 k-point 21 :   0.5000 0.5000 0.5000  plane waves:     344
 k-point 22 :   0.4737 0.4737 0.4737  plane waves:     356
 k-point 23 :   0.4474 0.4474 0.4474  plane waves:     356
 k-point 24 :   0.4211 0.4211 0.4211  plane waves:     356
 k-point 25 :   0.3947 0.3947 0.3947  plane waves:     353
 k-point 26 :   0.3684 0.3684 0.3684  plane waves:     353
 k-point 27 :   0.3421 0.3421 0.3421  plane waves:     359
 k-point 28 :   0.3158 0.3158 0.3158  plane waves:     353
 k-point 29 :   0.2895 0.2895 0.2895  plane waves:     353
 k-point 30 :   0.2632 0.2632 0.2632  plane waves:     353
 k-point 31 :   0.2368 0.2368 0.2368  plane waves:     353
 k-point 32 :   0.2105 0.2105 0.2105  plane waves:     356
 k-point 33 :   0.1842 0.1842 0.1842  plane waves:     356
 k-point 34 :   0.1579 0.1579 0.1579  plane waves:     344
 k-point 35 :   0.1316 0.1316 0.1316  plane waves:     338
 k-point 36 :   0.1053 0.1053 0.1053  plane waves:     335
 k-point 37 :   0.0789 0.0789 0.0789  plane waves:     338
 k-point 38 :   0.0526 0.0526 0.0526  plane waves:     338
 k-point 39 :   0.0263 0.0263 0.0263  plane waves:     339
 k-point 40 :   0.0000 0.0000 0.0000  plane waves:     339
 k-point 41 :   0.0000 0.0000 0.0000  plane waves:     339
 k-point 42 :   0.0263 0.0000 0.0263  plane waves:     339
 k-point 43 :   0.0526 0.0000 0.0526  plane waves:     335
 k-point 44 :   0.0789 0.0000 0.0789  plane waves:     335
 k-point 45 :   0.1053 0.0000 0.1053  plane waves:     339
 k-point 46 :   0.1316 0.0000 0.1316  plane waves:     347
 k-point 47 :   0.1579 0.0000 0.1579  plane waves:     351
 k-point 48 :   0.1842 0.0000 0.1842  plane waves:     351
 k-point 49 :   0.2105 0.0000 0.2105  plane waves:     347
 k-point 50 :   0.2368 0.0000 0.2368  plane waves:     351
 k-point 51 :   0.2632 0.0000 0.2632  plane waves:     351
 k-point 52 :   0.2895 0.0000 0.2895  plane waves:     347
 k-point 53 :   0.3158 0.0000 0.3158  plane waves:     347
 k-point 54 :   0.3421 0.0000 0.3421  plane waves:     351
 k-point 55 :   0.3684 0.0000 0.3684  plane waves:     351
 k-point 56 :   0.3947 0.0000 0.3947  plane waves:     359
 k-point 57 :   0.4211 0.0000 0.4211  plane waves:     351
 k-point 58 :   0.4474 0.0000 0.4474  plane waves:     351
 k-point 59 :   0.4737 0.0000 0.4737  plane waves:     343
 k-point 60 :   0.5000 0.0000 0.5000  plane waves:     342
[...]
 k-point 85 :   0.5000 0.1974 0.6974  plane waves:     368
 k-point 86 :   0.5000 0.1842 0.6842  plane waves:     360
 k-point 87 :   0.5000 0.1711 0.6711  plane waves:     360
 k-point 88 :   0.5000 0.1579 0.6579  plane waves:     360
 k-point 89 :   0.5000 0.1447 0.6447  plane waves:     362
 k-point 90 :   0.5000 0.1316 0.6316  plane waves:     362
 k-point 91 :   0.5000 0.1184 0.6184  plane waves:     362
 k-point 92 :   0.5000 0.1053 0.6053  plane waves:     358
 k-point 93 :   0.5000 0.0921 0.5921  plane waves:     358
 k-point 94 :   0.5000 0.0789 0.5789  plane waves:     358
 k-point 95 :   0.5000 0.0658 0.5658  plane waves:     352
 k-point 96 :   0.5000 0.0526 0.5526  plane waves:     352
 k-point 97 :   0.5000 0.0395 0.5395  plane waves:     346
 k-point 98 :   0.5000 0.0263 0.5263  plane waves:     346
 k-point 99 :   0.5000 0.0132 0.5132  plane waves:     342
 k-point ** :   0.5000 0.0000 0.5000  plane waves:     342

 maximum and minimum number of plane-waves per node :       368      335

 maximum number of plane-waves:       368
 maximum index in each direction:
   IXMAX=    4   IYMAX=    4   IZMAX=    4
   IXMIN=   -5   IYMIN=   -5   IZMIN=   -5

 serial   3D FFT for wavefunctions
 parallel 3D FFT for charge:
    minimum data exchange during FFTs selected (reduces bandwidth)

 initial charge density was supplied:
 number of electron       7.9999995 magnetization
 keeping initial charge density in first step

 Maximum index for augmentation-charges         3319 (set IRDMAX)

 First call to EWALD:  gamma=   0.515
 Maximum number of real-space cells 3x 3x 3
 Maximum number of reciprocal cells 3x 3x 3

--------------------------------------- Iteration      1(   1)  ---------------------------------------

 eigenvalue-minimisations  :  1600
 total energy-change (2. order) :-0.1426080E+00  (-0.2174671E+03)
 number of electron       7.9999995 magnetization
 augmentation part        7.9999995 magnetization

 Free energy of the ion-electron system (eV)
  alpha Z        PSCENC =         3.18742041
  Ewald energy   TEWEN  =      -227.25055085
  -Hartree energ DENC   =       -15.20290447
  -exchange      EXHF   =         0.00000000
  -V(xc)+E(xc)   XCENC  =       -18.52084166
  PAW double counting   =        74.91473297      -39.56875585
  entropy T*S    EENTRO =         0.00199604
  eigenvalues    EBANDS =        15.69239634
  atomic energy  EATOM  =       206.60389906
  Solvation  Ediel_sol  =         0.00000000
  free energy    TOTEN  =        -0.14260802 eV

  energy without entropy =       -0.14460405  energy(sigma->0) =       -0.14327336

[...]

--------------------------------------- Iteration      1(   6)  ---------------------------------------

 eigenvalue-minimisations  :  2576
 total energy-change (2. order) :-0.5425989E-08  (-0.5057941E-08)
 number of electron       7.9999995 magnetization
 augmentation part        7.9999995 magnetization

 Free energy of the ion-electron system (eV)
  alpha Z        PSCENC =         3.18742041
  Ewald energy   TEWEN  =      -227.25055085
  -Hartree energ DENC   =       -15.20290447
  -exchange      EXHF   =         0.00000000
  -V(xc)+E(xc)   XCENC  =       -18.52084166
  PAW double counting   =        74.91473297      -39.56875585
  entropy T*S    EENTRO =         0.00255166
  eigenvalues    EBANDS =         5.79351379
  atomic energy  EATOM  =       206.60389906
  Solvation  Ediel_sol  =         0.00000000
  free energy    TOTEN  =       -10.04093494 eV

  energy without entropy =      -10.04348659  energy(sigma->0) =      -10.04178549

 average (electrostatic) potential at core
  the test charge radii are     0.9892
  (the norm of the test charge is              1.0000)
       1 -83.6891       2 -83.6891

 E-fermi :   5.7722     XC(G=0):  -9.3686     alpha+bet :-11.7936

 k-point     1 :       0.5000    0.2500    0.7500
  band No.  band energies     occupation
      1      -1.9663      2.00000
      2      -1.9663      2.00000
      3       1.8615      2.00000
      4       1.8615      2.00000
      5       9.9297     -0.00000
      6       9.9297     -0.00000
      7      10.5976     -0.00000
      8      10.5976     -0.00000

[...]

 k-point   100 :       0.5000    0.0000    0.5000
  band No.  band energies     occupation
      1      -2.1220      2.00000
      2      -2.1220      2.00000
      3       2.8322      2.00000
      4       2.8322      2.00000
      5       6.4027     -0.00008
      6       6.4027     -0.00008
      7      15.6088      0.00000
      8      15.6089      0.00000

 soft charge-density along one line, spin component           1
         0         1         2         3         4         5         6         7         8         9
 total charge-density along one line

------------------------ aborting loop because EDIFF is reached ----------------------------------------

  FORCE on cell =-STRESS in cart. coord.  units (eV):
  Direction    XX          YY          ZZ          XY          YZ          ZX
  Alpha Z     3.18742     3.18742     3.18742
  Ewald     -75.75022   -75.75022   -75.75022     0.00000     0.00000    -0.00000
  Hartree     5.31893     5.31893     5.31893    -0.00000    -0.00000    -0.00000
  E(xc)     -25.40830   -25.40830   -25.40830     0.00001     0.00001     0.00001
  Local     -30.36478   -30.36478   -30.36478     0.00005     0.00005     0.00005
  n-local    74.06591    78.77750    79.89552    -0.83934    -1.08955    -1.08953
  augment   -11.52612   -11.52612   -11.52612    -0.00005    -0.00005    -0.00005
  Kinetic    55.16579    60.62243    57.47589    -1.31475    -1.45806    -1.45806
  Fock        0.00000     0.00000     0.00000     0.00000     0.00000     0.00000
  Total       0.79128     0.79128     0.79128    -0.00000    -0.00000     0.00000
  in kB      31.13135    31.13135    31.13135    -0.00000    -0.00000     0.00000

 VOLUME and BASIS-vectors are now :
  energy-cutoff  :      245.44
  volume of cell :       40.72
      direct lattice vectors                 reciprocal lattice vectors
     2.730686319  2.730686319  0.000000000     0.183104151  0.183104151 -0.183104151
     0.000000000  2.730686319  2.730686319    -0.183104151  0.183104151  0.183104151
     2.730686319  0.000000000  2.730686319     0.183104151 -0.183104151  0.183104151

  length of vectors
     3.861773627  3.861773627  3.861773627     0.317145693  0.317145693  0.317145693

 FORCES acting on ions
    electron-ion (+dipol)            ewald-force                    non-local-force                 convergence-correction
   0.303E-05 0.303E-05 0.303E-05   0.146E-16 0.424E-14 -.112E-14   0.135E-15 0.180E-15 0.118E-15   -.636E-08 -.636E-08 -.636E-08
   -.303E-05 -.303E-05 -.303E-05   0.560E-16 -.446E-14 0.889E-15   -.132E-15 -.158E-15 -.111E-15   0.636E-08 0.636E-08 0.636E-08
   0.482E-15 -.335E-14 0.149E-14   0.706E-16 -.224E-15 -.235E-15   0.347E-17 0.226E-16 0.694E-17   -.104E-13 0.726E-14 0.819E-14

 POSITION                                       TOTAL-FORCE (eV/Angst)
      0.00000      0.00000      0.00000         0.000000      0.000000      0.000000
      1.36534      1.36534      1.36534        -0.000000     -0.000000     -0.000000
    total drift:                               -0.000000      0.000000      0.000000

  FREE ENERGIE OF THE ION-ELECTRON SYSTEM (eV)
  free  energy   TOTEN  =       -10.04093494 eV

  energy  without entropy=      -10.04348659  energy(sigma->0) =      -10.04178549

volume of typ            1:    46.5 %

total charge

# of ion       s       p       d       tot
    1        1.002   1.548   0.134   2.684
    2        1.002   1.548   0.134   2.684
tot           2.00    3.10    0.27    5.37

orbital moment (x)

[...]

orbital moment (y)

[...]

orbital moment (z)

# of ion     s             p             d             tot
    1     0.000000E+00 -0.136608E+00 -0.501106E-01 -0.186719E+00
    2     0.000000E+00  0.136608E+00  0.501106E-01  0.186719E+00
tot        0.000000E+00  0.719950E-09  0.697443E-08  0.769438E-08