 vasp.5.4.4.18Apr17-6-g9f103f2a35 (build May 20 2018 16:52:39) complex

 executed on             LinuxIFC date 2022.10.01  22:33:25

 INCAR:
 POTCAR:    PAW Si
 POTCAR:    PAW Si
   VRHFIN =Si: s2p2

   TITEL  = PAW Si
   POMASS =   28.085; ZVAL   =    4.000    mass and valenz
   ENMAX  =  245.435; ENMIN  =  184.076 eV
   QCUT   =   -4.247; QGAM   =    8.494    optimization parameters

   Description
     l     E      TYP  RCUT    TYP  RCUT
     0   .000     23  1.900
     0   .000     23  1.900
     1   .000     23  1.900
     1   .000     23  1.900
     2   .000      7  1.900

  PAW Si                                :

 POSCAR: Si diamond structure
  positions in direct lattice
 exchange correlation table for  LEXCH =        7
   RHO(1)=    0.500       N(1)  =     2000
   RHO(2)=  100.500       N(2)  =     4000

 ion  position               nearest neighbor table
   1  0.000  0.000  0.000-   2 2.35   2 2.35   2 2.35   2 2.35
   2  0.250  0.250  0.250-   1 2.35   1 2.35   1 2.35   1 2.35

  LATTYP: Found a face centered cubic cell.
 ALAT       =     5.4300000000

  Lattice vectors:

 A1 = (   0.0000000000,   2.7150000000,   2.7150000000)
 A2 = (   2.7150000000,   0.0000000000,   2.7150000000)
 A3 = (   2.7150000000,   2.7150000000,   0.0000000000)

Analysis of symmetry for initial positions (statically):
 Subroutine PRICEL returns:
 Original cell was already a primitive cell.

 Routine SETGRP: Setting up the symmetry group for a
 face centered cubic supercell.

 Subroutine GETGRP returns: Found 48 space group operations
 (whereof 24 operations were pure point group operations)
 out of a pool of 48 trial point group operations.

The static configuration has the point symmetry T_d .
 The point group associated with its full space group is O_h .

Analysis of symmetry for dynamics (positions and initial velocities):
 Subroutine PRICEL returns:
 Original cell was already a primitive cell.

 Routine SETGRP: Setting up the symmetry group for a
 face centered cubic supercell.

 Subroutine GETGRP returns: Found 48 space group operations
 (whereof 24 operations were pure point group operations)
 out of a pool of 48 trial point group operations.

The dynamic configuration has the point symmetry T_d .
 The point group associated with its full space group is O_h .

 Subroutine INISYM returns: Found 48 space group operations
 (whereof 24 operations are pure point group operations),
 and found     1 'primitive' translations

 KPOINTS: K-Points

Automatic generation of k-mesh.
Space group operators:
 irot       det(A)        alpha          n_x          n_y          n_z        tau_x        tau_y        tau_z
    1     1.000000     0.000001     1.000000     0.000000     0.000000     0.000000     0.000000     0.000000
    2     1.000000   120.000000    -0.577350    -0.577350    -0.577350     0.000000     0.000000     0.000000
    3     1.000000   120.000000     0.577350     0.577350     0.577350     0.000000     0.000000     0.000000
    4    -1.000000    90.000000     0.000000     0.000000    -1.000000     0.000000     0.000000     0.000000
    5    -1.000000   180.000000     0.000000     0.707107     0.707107     0.000000     0.000000     0.000000
    6    -1.000000    90.000000     0.000000     1.000000     0.000000     0.000000     0.000000     0.000000
    7     1.000000   180.000000     0.000000     0.000000     1.000000     0.000000     0.000000     0.000000
    8     1.000000   120.000000    -0.577350     0.577350     0.577350     0.000000     0.000000     0.000000
    9     1.000000   120.000000    -0.577350     0.577350    -0.577350     0.000000     0.000000     0.000000
   10    -1.000000    90.000000     0.000000     0.000000     1.000000     0.000000     0.000000     0.000000
   11    -1.000000    90.000000    -1.000000     0.000000     0.000000     0.000000     0.000000     0.000000
   12    -1.000000   180.000000     0.707107     0.000000     0.707107     0.000000     0.000000     0.000000
   13     1.000000   120.000000     0.577350    -0.577350     0.577350     0.000000     0.000000     0.000000
   14     1.000000   120.000000    -0.577350    -0.577350     0.577350     0.000000     0.000000     0.000000
   15     1.000000   180.000000     1.000000     0.000000     0.000000     0.000000     0.000000     0.000000
   16    -1.000000    90.000000     0.000000    -1.000000     0.000000     0.000000     0.000000     0.000000
   17    -1.000000   180.000000     0.707107     0.707107     0.000000     0.000000     0.000000     0.000000
   18    -1.000000    90.000000     1.000000     0.000000     0.000000     0.000000     0.000000     0.000000
   19     1.000000   120.000000     0.577350    -0.577350    -0.577350     0.000000     0.000000     0.000000
   20     1.000000   180.000000     0.000000     1.000000     0.000000     0.000000     0.000000     0.000000
   21     1.000000   120.000000     0.577350     0.577350    -0.577350     0.000000     0.000000     0.000000
   22    -1.000000   180.000000     0.000000    -0.707107     0.707107     0.000000     0.000000     0.000000
   23    -1.000000   180.000000     0.707107    -0.707107     0.000000     0.000000     0.000000     0.000000
   24    -1.000000   180.000000     0.707107     0.000000    -0.707107     0.000000     0.000000     0.000000
   25    -1.000000     0.000001     1.000000     0.000000     0.000000     0.250000     0.250000     0.250000
   26    -1.000000   120.000000    -0.577350    -0.577350    -0.577350     0.250000     0.250000     0.250000
   27    -1.000000   120.000000     0.577350     0.577350     0.577350     0.250000     0.250000     0.250000
   28     1.000000    90.000000     0.000000     0.000000    -1.000000     0.250000     0.250000     0.250000
   29     1.000000   180.000000     0.000000     0.707107     0.707107     0.250000     0.250000     0.250000
   30     1.000000    90.000000     0.000000     1.000000     0.000000     0.250000     0.250000     0.250000
   31    -1.000000   180.000000     0.000000     0.000000     1.000000     0.250000     0.250000     0.250000
   32    -1.000000   120.000000    -0.577350     0.577350     0.577350     0.250000     0.250000     0.250000
   33    -1.000000   120.000000    -0.577350     0.577350    -0.577350     0.250000     0.250000     0.250000
   34     1.000000    90.000000     0.000000     0.000000     1.000000     0.250000     0.250000     0.250000
   35     1.000000    90.000000    -1.000000     0.000000     0.000000     0.250000     0.250000     0.250000
   36     1.000000   180.000000     0.707107     0.000000     0.707107     0.250000     0.250000     0.250000
   37    -1.000000   120.000000     0.577350    -0.577350     0.577350     0.250000     0.250000     0.250000
   38    -1.000000   120.000000    -0.577350    -0.577350     0.577350     0.250000     0.250000     0.250000
   39    -1.000000   180.000000     1.000000     0.000000     0.000000     0.250000     0.250000     0.250000
   40     1.000000    90.000000     0.000000    -1.000000     0.000000     0.250000     0.250000     0.250000
   41     1.000000   180.000000     0.707107     0.707107     0.000000     0.250000     0.250000     0.250000
   42     1.000000    90.000000     1.000000     0.000000     0.000000     0.250000     0.250000     0.250000
   43    -1.000000   120.000000     0.577350    -0.577350    -0.577350     0.250000     0.250000     0.250000
   44    -1.000000   180.000000     0.000000     1.000000     0.000000     0.250000     0.250000     0.250000
   45    -1.000000   120.000000     0.577350     0.577350    -0.577350     0.250000     0.250000     0.250000
   46     1.000000   180.000000     0.000000    -0.707107     0.707107     0.250000     0.250000     0.250000
   47     1.000000   180.000000     0.707107    -0.707107     0.000000     0.250000     0.250000     0.250000
   48     1.000000   180.000000     0.707107     0.000000    -0.707107     0.250000     0.250000     0.250000

 Subroutine IBZKPT returns following result:

 Found    770 irreducible k-points:

 Following reciprocal coordinates:
            Coordinates               Weight
  0.025000  0.025000  0.025000     96.000000
  0.075000  0.025000  0.025000    288.000000
  0.125000  0.025000  0.025000    288.000000
  0.175000  0.025000  0.025000    288.000000
  0.225000  0.025000  0.025000    288.000000
  0.275000  0.025000  0.025000    288.000000
  0.325000  0.025000  0.025000    288.000000
  0.375000  0.025000  0.025000    288.000000
  0.425000  0.025000  0.025000    288.000000
  0.475000  0.025000  0.025000    288.000000
 -0.475000  0.025000  0.025000    288.000000
 -0.425000  0.025000  0.025000    288.000000
 -0.375000  0.025000  0.025000    288.000000
 -0.325000  0.025000  0.025000    288.000000
 -0.275000  0.025000  0.025000    288.000000
 -0.225000  0.025000  0.025000    288.000000
 -0.175000  0.025000  0.025000    288.000000
 -0.125000  0.025000  0.025000    288.000000
 -0.075000  0.025000  0.025000    288.000000
 -0.025000  0.025000  0.025000    288.000000
  0.075000  0.075000  0.025000    288.000000
  0.125000  0.075000  0.025000    576.000000
  0.175000  0.075000  0.025000    576.000000
  0.225000  0.075000  0.025000    576.000000
  0.275000  0.075000  0.025000    576.000000
  0.325000  0.075000  0.025000    576.000000
  0.375000  0.075000  0.025000    576.000000
  0.425000  0.075000  0.025000    576.000000
  0.475000  0.075000  0.025000    576.000000
 -0.475000  0.075000  0.025000    576.000000
 -0.425000  0.075000  0.025000    576.000000
 -0.375000  0.075000  0.025000    576.000000
 -0.325000  0.075000  0.025000    576.000000
 -0.275000  0.075000  0.025000    576.000000
 -0.225000  0.075000  0.025000    576.000000
 -0.175000  0.075000  0.025000    576.000000
 -0.125000  0.075000  0.025000    576.000000
 -0.075000  0.075000  0.025000    576.000000
 -0.025000  0.075000  0.025000    576.000000
  0.125000  0.125000  0.025000    288.000000
  0.175000  0.125000  0.025000    576.000000
  0.225000  0.125000  0.025000    576.000000
  0.275000  0.125000  0.025000    576.000000
  0.325000  0.125000  0.025000    576.000000
  0.375000  0.125000  0.025000    576.000000
  0.425000  0.125000  0.025000    576.000000
  0.475000  0.125000  0.025000    576.000000
 -0.475000  0.125000  0.025000    576.000000
 -0.425000  0.125000  0.025000    576.000000
 -0.375000  0.125000  0.025000    576.000000
 -0.325000  0.125000  0.025000    576.000000
 -0.275000  0.125000  0.025000    576.000000
 -0.225000  0.125000  0.025000    576.000000
 -0.175000  0.125000  0.025000    576.000000
 -0.125000  0.125000  0.025000    576.000000
 -0.075000  0.125000  0.025000    576.000000
 -0.025000  0.125000  0.025000    576.000000
  0.175000  0.175000  0.025000    288.000000
  0.225000  0.175000  0.025000    576.000000
  0.275000  0.175000  0.025000    576.000000
[...]
 -0.425000  0.475000  0.375000    576.000000
 -0.375000  0.475000  0.375000    576.000000
 -0.475000 -0.475000  0.375000    288.000000
 -0.425000 -0.475000  0.375000    576.000000
 -0.425000 -0.425000  0.375000    288.000000
  0.425000  0.425000  0.425000     96.000000
  0.475000  0.425000  0.425000    288.000000
 -0.475000  0.425000  0.425000    288.000000
 -0.425000  0.425000  0.425000    288.000000
[...]
  -0.42500000  0.42500000  0.42500000       0.001
   0.47500000  0.47500000  0.42500000       0.001
  -0.47500000  0.47500000  0.42500000       0.002
  -0.42500000  0.47500000  0.42500000       0.002
  -0.47500000 -0.47500000  0.42500000       0.001
   0.47500000  0.47500000  0.47500000       0.000
  -0.47500000  0.47500000  0.47500000       0.001

 position of ions in fractional coordinates (direct lattice)
   0.00000000  0.00000000  0.00000000
   0.25000000  0.25000000  0.25000000

 position of ions in cartesian coordinates  (Angst):
   0.00000000  0.00000000  0.00000000
   1.35750000  1.35750000  1.35750000

 k-point  1 :   0.0250 0.0250 0.0250  plane waves:     965
 k-point  2 :   0.0750 0.0250 0.0250  plane waves:     986
 k-point  3 :   0.1250 0.0250 0.0250  plane waves:     995
 k-point  4 :   0.1750 0.0250 0.0250  plane waves:     992
 k-point  5 :   0.2250 0.0250 0.0250  plane waves:    1000
 k-point  6 :   0.2750 0.0250 0.0250  plane waves:    1002
 k-point  7 :   0.3250 0.0250 0.0250  plane waves:    1007
 k-point  8 :   0.3750 0.0250 0.0250  plane waves:    1011
 k-point  9 :   0.4250 0.0250 0.0250  plane waves:    1024
 k-point 10 :   0.4750 0.0250 0.0250  plane waves:    1022
 k-point 11 :  -0.4750 0.0250 0.0250  plane waves:    1008
 k-point 12 :  -0.4250 0.0250 0.0250  plane waves:    1023
 k-point 13 :  -0.3750 0.0250 0.0250  plane waves:    1021
 k-point 14 :  -0.3250 0.0250 0.0250  plane waves:    1011
 k-point 15 :  -0.2750 0.0250 0.0250  plane waves:    1010
 k-point 16 :  -0.2250 0.0250 0.0250  plane waves:    1002
 k-point 17 :  -0.1750 0.0250 0.0250  plane waves:     996
 k-point 18 :  -0.1250 0.0250 0.0250  plane waves:     994
 k-point 19 :  -0.0750 0.0250 0.0250  plane waves:     990
 k-point 20 :  -0.0250 0.0250 0.0250  plane waves:     980
 k-point 21 :   0.0750 0.0750 0.0250  plane waves:     991
 k-point 22 :   0.1250 0.0750 0.0250  plane waves:     993
 k-point 23 :   0.1750 0.0750 0.0250  plane waves:     997
 k-point 24 :   0.2250 0.0750 0.0250  plane waves:    1002
 k-point 25 :   0.2750 0.0750 0.0250  plane waves:    1005
 k-point 26 :   0.3250 0.0750 0.0250  plane waves:    1011
 k-point 27 :   0.3750 0.0750 0.0250  plane waves:    1018
 k-point 28 :   0.4250 0.0750 0.0250  plane waves:    1016
 k-point 29 :   0.4750 0.0750 0.0250  plane waves:    1021
 k-point 30 :  -0.4750 0.0750 0.0250  plane waves:    1011
 k-point 31 :  -0.4250 0.0750 0.0250  plane waves:    1021
 k-point 32 :  -0.3750 0.0750 0.0250  plane waves:    1018
 k-point 33 :  -0.3250 0.0750 0.0250  plane waves:    1017
 k-point 34 :  -0.2750 0.0750 0.0250  plane waves:    1010
 k-point 35 :  -0.2250 0.0750 0.0250  plane waves:    1006
 k-point 36 :  -0.1750 0.0750 0.0250  plane waves:    1004
 k-point 37 :  -0.1250 0.0750 0.0250  plane waves:     994
 k-point 38 :  -0.0750 0.0750 0.0250  plane waves:     993
 k-point 39 :  -0.0250 0.0750 0.0250  plane waves:     986
 k-point 40 :   0.1250 0.1250 0.0250  plane waves:     997
 k-point 41 :   0.1750 0.1250 0.0250  plane waves:     996
 k-point 42 :   0.2250 0.1250 0.0250  plane waves:    1004
 k-point 43 :   0.2750 0.1250 0.0250  plane waves:    1005
 k-point 44 :   0.3250 0.1250 0.0250  plane waves:    1012
 k-point 45 :   0.3750 0.1250 0.0250  plane waves:    1012
 k-point 46 :   0.4250 0.1250 0.0250  plane waves:    1014
 k-point 47 :   0.4750 0.1250 0.0250  plane waves:    1018
 k-point 48 :  -0.4750 0.1250 0.0250  plane waves:    1017
 k-point 49 :  -0.4250 0.1250 0.0250  plane waves:    1014
 k-point 50 :  -0.3750 0.1250 0.0250  plane waves:    1018
 k-point 51 :  -0.3250 0.1250 0.0250  plane waves:    1018
 k-point 52 :  -0.2750 0.1250 0.0250  plane waves:    1015
 k-point 53 :  -0.2250 0.1250 0.0250  plane waves:    1010
 k-point 54 :  -0.1750 0.1250 0.0250  plane waves:    1004
 k-point 55 :  -0.1250 0.1250 0.0250  plane waves:    1002
 k-point 56 :  -0.0750 0.1250 0.0250  plane waves:     996
 k-point 57 :  -0.0250 0.1250 0.0250  plane waves:     994
 k-point 58 :   0.1750 0.1750 0.0250  plane waves:     999
 k-point 59 :   0.2250 0.1750 0.0250  plane waves:     999
 k-point 60 :   0.2750 0.1750 0.0250  plane waves:    1004
[...]
 k-point 85 :  -0.2750 0.2250 0.0250  plane waves:    1019
 k-point 86 :  -0.2250 0.2250 0.0250  plane waves:    1017
 k-point 87 :  -0.1750 0.2250 0.0250  plane waves:    1007
 k-point 88 :  -0.1250 0.2250 0.0250  plane waves:    1012
 k-point 89 :  -0.0750 0.2250 0.0250  plane waves:    1005
 k-point 90 :  -0.0250 0.2250 0.0250  plane waves:    1006
 k-point 91 :   0.2750 0.2750 0.0250  plane waves:    1011
 k-point 92 :   0.3250 0.2750 0.0250  plane waves:    1017
 k-point 93 :   0.3750 0.2750 0.0250  plane waves:    1023
 k-point 94 :   0.4250 0.2750 0.0250  plane waves:    1024
 k-point 95 :   0.4750 0.2750 0.0250  plane waves:    1023
 k-point 96 :  -0.4750 0.2750 0.0250  plane waves:    1019
 k-point 97 :  -0.4250 0.2750 0.0250  plane waves:    1021
 k-point 98 :  -0.3750 0.2750 0.0250  plane waves:    1015
 k-point 99 :  -0.3250 0.2750 0.0250  plane waves:    1013
 k-point ** :  -0.2750 0.2750 0.0250  plane waves:    1018
 k-point ** :  -0.2250 0.2750 0.0250  plane waves:    1016
 k-point ** :  -0.1750 0.2750 0.0250  plane waves:    1016
 k-point ** :  -0.1250 0.2750 0.0250  plane waves:    1017
 k-point ** :  -0.0750 0.2750 0.0250  plane waves:    1008
 k-point ** :  -0.0250 0.2750 0.0250  plane waves:    1007
 k-point ** :   0.3250 0.3250 0.0250  plane waves:    1019
 k-point ** :   0.3750 0.3250 0.0250  plane waves:    1024
 k-point ** :   0.4250 0.3250 0.0250  plane waves:    1024
 k-point ** :   0.4750 0.3250 0.0250  plane waves:    1020
 k-point ** :  -0.4750 0.3250 0.0250  plane waves:    1018
 k-point ** :  -0.4250 0.3250 0.0250  plane waves:    1020
 k-point ** :  -0.3750 0.3250 0.0250  plane waves:    1015
 k-point ** :  -0.3250 0.3250 0.0250  plane waves:    1019
 k-point ** :  -0.2750 0.3250 0.0250  plane waves:    1013
 k-point ** :  -0.2250 0.3250 0.0250  plane waves:    1019
 k-point ** :  -0.1750 0.3250 0.0250  plane waves:    1016
 k-point ** :  -0.1250 0.3250 0.0250  plane waves:    1018
 k-point ** :  -0.0750 0.3250 0.0250  plane waves:    1012
 k-point ** :  -0.0250 0.3250 0.0250  plane waves:    1012
 k-point ** :   0.3750 0.3750 0.0250  plane waves:    1027
 k-point ** :   0.4250 0.3750 0.0250  plane waves:    1024
 k-point ** :   0.4750 0.3750 0.0250  plane waves:    1018
 k-point ** :  -0.4750 0.3750 0.0250  plane waves:    1019
 k-point ** :  -0.4250 0.3750 0.0250  plane waves:    1017
 k-point ** :  -0.3750 0.3750 0.0250  plane waves:    1015
 k-point ** :  -0.3250 0.3750 0.0250  plane waves:    1018
 k-point ** :  -0.2750 0.3750 0.0250  plane waves:    1013
 k-point ** :  -0.2250 0.3750 0.0250  plane waves:    1013
 k-point ** :  -0.1750 0.3750 0.0250  plane waves:    1019
 k-point ** :  -0.1250 0.3750 0.0250  plane waves:    1022
 k-point ** :  -0.0750 0.3750 0.0250  plane waves:    1017
 k-point ** :  -0.0250 0.3750 0.0250  plane waves:    1016
 k-point ** :   0.4250 0.4250 0.0250  plane waves:    1013
 k-point ** :   0.4750 0.4250 0.0250  plane waves:    1010
 k-point ** :  -0.4750 0.4250 0.0250  plane waves:    1013
 k-point ** :  -0.4250 0.4250 0.0250  plane waves:    1021
 k-point ** :  -0.3750 0.4250 0.0250  plane waves:    1017
 k-point ** :  -0.3250 0.4250 0.0250  plane waves:    1016
 k-point ** :  -0.2750 0.4250 0.0250  plane waves:    1020
 k-point ** :  -0.2250 0.4250 0.0250  plane waves:    1016
 k-point ** :  -0.1750 0.4250 0.0250  plane waves:    1014
 k-point ** :  -0.1250 0.4250 0.0250  plane waves:    1011
 k-point ** :  -0.0750 0.4250 0.0250  plane waves:    1018
 k-point ** :  -0.0250 0.4250 0.0250  plane waves:    1021
 k-point ** :   0.4750 0.4750 0.0250  plane waves:    1012
 k-point ** :  -0.4750 0.4750 0.0250  plane waves:    1014
 k-point ** :  -0.4250 0.4750 0.0250  plane waves:    1012
 k-point ** :  -0.3750 0.4750 0.0250  plane waves:    1020
 k-point ** :  -0.3250 0.4750 0.0250  plane waves:    1018
 k-point ** :  -0.2750 0.4750 0.0250  plane waves:    1017
 k-point ** :  -0.2250 0.4750 0.0250  plane waves:    1020
 k-point ** :  -0.1750 0.4750 0.0250  plane waves:    1015
 k-point ** :  -0.1250 0.4750 0.0250  plane waves:    1016
 k-point ** :  -0.0750 0.4750 0.0250  plane waves:    1015
 k-point ** :  -0.0250 0.4750 0.0250  plane waves:    1017
 k-point ** :  -0.4750-0.4750 0.0250  plane waves:    1019
 k-point ** :  -0.4250-0.4750 0.0250  plane waves:    1012
 k-point ** :  -0.3750-0.4750 0.0250  plane waves:    1014
 k-point ** :  -0.3250-0.4750 0.0250  plane waves:    1018
[...]
 k-point ** :  -0.4250 0.4750 0.3750  plane waves:    1023
 k-point ** :  -0.3750 0.4750 0.3750  plane waves:    1025
 k-point ** :  -0.4750-0.4750 0.3750  plane waves:    1016
 k-point ** :  -0.4250-0.4750 0.3750  plane waves:    1018
 k-point ** :  -0.4250-0.4250 0.3750  plane waves:    1014
 k-point ** :   0.4250 0.4250 0.4250  plane waves:    1023
 k-point ** :   0.4750 0.4250 0.4250  plane waves:    1020
 k-point ** :  -0.4750 0.4250 0.4250  plane waves:    1013
 k-point ** :  -0.4250 0.4250 0.4250  plane waves:    1011
 k-point ** :   0.4750 0.4750 0.4250  plane waves:    1021
 k-point ** :  -0.4750 0.4750 0.4250  plane waves:    1016
 k-point ** :  -0.4250 0.4750 0.4250  plane waves:    1017
 k-point ** :  -0.4750-0.4750 0.4250  plane waves:    1013
 k-point ** :   0.4750 0.4750 0.4750  plane waves:    1020
 k-point ** :  -0.4750 0.4750 0.4750  plane waves:    1014

 maximum and minimum number of plane-waves per node :      1033      965

 maximum number of plane-waves:      1033
 maximum index in each direction:
   IXMAX=    7   IYMAX=    7   IZMAX=    6
   IXMIN=   -7   IYMIN=   -7   IZMIN=   -7

 serial   3D FFT for wavefunctions
 parallel 3D FFT for charge:
    minimum data exchange during FFTs selected (reduces bandwidth)

 initial charge density was supplied:
 number of electron       7.9999999 magnetization
 keeping initial charge density in first step

 Maximum index for augmentation-charges        11057 (set IRDMAX)

 First call to EWALD:  gamma=   0.518
 Maximum number of real-space cells 3x 3x 3
 Maximum number of reciprocal cells 3x 3x 3

--------------------------------------- Iteration      1(   1)  ---------------------------------------

 BZINTS: Fermi energy: 10.351794;  8.000000 electrons
         Band energy:  23.374803;  BLOECHL correction: -0.187965

 eigenvalue-minimisations  : 12336
 total energy-change (2. order) : 0.6546858E+01  (-0.3211519E+03)
 number of electron       7.9999999 magnetization
 augmentation part        7.9999999 magnetization

 Free energy of the ion-electron system (eV)
  alpha Z        PSCENC =         3.24298762
  Ewald energy   TEWEN  =      -228.56352493
  -Hartree energ DENC   =       -15.00867141
  -exchange      EXHF   =         0.00000000
  -V(xc)+E(xc)   XCENC  =       -18.45142324
  PAW double counting   =        74.74430996      -39.40552429
  entropy T*S    EENTRO =         0.00000000
  eigenvalues    EBANDS =        23.37480339
  atomic energy  EATOM  =       206.61390135
  Solvation  Ediel_sol  =         0.00000000
  free energy    TOTEN  =         6.54685846 eV

  energy without entropy =        6.54685846  energy(sigma->0) =        6.54685846

[...]

 eigenvalue-minimisations  : 18608
 total energy-change (2. order) :-0.1716734E+02  (-0.1686680E+02)
 number of electron       7.9999999 magnetization
 augmentation part        7.9999999 magnetization

[...]

--------------------------------------- Iteration      1(   6)  ---------------------------------------

[...]

 eigenvalue-minimisations  : 19912
 total energy-change (2. order) :-0.3228763E-08  (-0.3228731E-08)
 number of electron       7.9999999 magnetization
 augmentation part        7.9999999 magnetization

 Free energy of the ion-electron system (eV)
  alpha Z        PSCENC =         3.24298762
  Ewald energy   TEWEN  =      -228.56352493
  -Hartree energ DENC   =       -15.00867141
  -exchange      EXHF   =         0.00000000
  -V(xc)+E(xc)   XCENC  =       -18.45142324
  PAW double counting   =        74.74430996      -39.40552429
  entropy T*S    EENTRO =         0.00000000
  eigenvalues    EBANDS =         5.96989611
  atomic energy  EATOM  =       206.61390135
  Solvation  Ediel_sol  =         0.00000000
  free energy    TOTEN  =       -10.85804882 eV

  energy without entropy =      -10.85804882  energy(sigma->0) =      -10.85804882

 average (electrostatic) potential at core
  the test charge radii are     0.9892
  (the norm of the test charge is              1.0000)
       1 -83.4928       2 -83.4928

 E-fermi :   5.7987     XC(G=0):  -9.4343     alpha+bet :-11.9992

 k-point     1 :       0.0250    0.0250    0.0250
  band No.  band energies     occupation
      1      -6.1365      2.00000
      2       5.6995      2.00000
      3       5.7818      2.00000
      4       5.7818      2.00000
      5       8.4029      0.00000
      6       8.4029      0.00000
      7       8.4065      0.00000
      8       9.2253      0.00000

[...]

 k-point   770 :      -0.4750    0.4750    0.4750
  band No.  band energies     occupation
      1      -3.7903      2.00000
      2      -1.1349      2.00000
      3       4.3410      2.00000
      4       4.5602      2.00000
      5       7.5755      0.00000
      6       9.1257      0.00000
      7       9.2638      0.00000
      8      13.6607      0.00000

 soft charge-density along one line, spin component           1
         0         1         2         3         4         5         6         7         8         9
 total charge-density along one line

------------------------ aborting loop because EDIFF is reached ----------------------------------------

 total charge

# of ion       s       p       d       tot
    1        0.753   0.945   0.000   1.698
    2        0.753   0.945   0.000   1.698
tot          1.505   1.890   0.000   3.396

  FORCE on cell =-STRESS in cart. coord.  units (eV):
  Direction    XX          YY          ZZ          XY          YZ          ZX
  Alpha Z     3.24299     3.24299     3.24299
  Ewald     -76.18788   -76.18788   -76.18788     0.00000    -0.00000     0.00000
  Hartree     5.00289     5.00289     5.00289     0.00000     0.00000     0.00000
  E(xc)     -25.47564   -25.47564   -25.47564     0.00000     0.00000     0.00000
  Local     -29.52640   -29.52640   -29.52640     0.00001     0.00001     0.00001
  n-local    78.46137    80.87783    75.72097     1.05531    -1.06031     0.00498
  augment   -11.83945   -11.83945   -11.83945    -0.00001    -0.00001    -0.00001
  Kinetic    58.61371    56.20982    55.91082     0.89133    -0.89648     0.00514
  Fock        0.00000     0.00000     0.00000     0.00000     0.00000     0.00000
  Total       0.48136     0.48136     0.48136     0.00000     0.00000    -0.00000
  in kB      19.26809    19.26809    19.26809     0.00000     0.00000    -0.00000

 VOLUME and BASIS-vectors are now :
  energy-cutoff  :      500.00
  volume of cell :       40.03
      direct lattice vectors                 reciprocal lattice vectors
     0.000000000  2.715000000  2.715000000    -0.184162063  0.184162063  0.184162063
     2.715000000  0.000000000  2.715000000     0.184162063 -0.184162063  0.184162063
     2.715000000  2.715000000  0.000000000     0.184162063  0.184162063 -0.184162063

  length of vectors
     3.839589822  3.839589822  3.839589822     0.318978049  0.318978049  0.318978049

 FORCES acting on ions
    electron-ion (+dipol)            ewald-force                    non-local-force                 convergence-correction
   0.204E-06 0.204E-06 0.204E-06   0.132E-14 -.451E-14 -.305E-14   0.139E-16 0.139E-16 0.122E-16   0.483E-10 0.483E-10 0.483E-10
   -.204E-06 -.204E-06 -.204E-06   -.113E-14 0.493E-14 0.317E-14   -.104E-16 -.139E-16 -.109E-16   -.483E-10 -.483E-10 -.483E-10
   -.393E-13 0.133E-13 0.971E-14   0.187E-15 0.422E-15 0.120E-15   0.347E-17 0.000E+00 0.125E-17   -.683E-15 -.802E-15 -.408E-15

 POSITION                                       TOTAL-FORCE (eV/Angst)
      0.00000      0.00000      0.00000         0.000000     -0.000000     -0.000000
      1.35750      1.35750      1.35750        -0.000000      0.000000      0.000000
    total drift:                               -0.000000      0.000000      0.000000

  FREE ENERGIE OF THE ION-ELECTRON SYSTEM (eV)
  free  energy   TOTEN  =       -10.85804882 eV

  energy  without entropy=      -10.85804882  energy(sigma->0) =      -10.85804882

 total charge

# of ion       s       p       d       tot
    1        0.753   0.945   0.000   1.698
    2        0.753   0.945   0.000   1.698
tot          1.505   1.890   0.000   3.396

 BZINTS: Fermi energy:  5.798730;  8.000000 electrons
         Band energy:   5.969896;  BLOECHL correction:  0.000000