 vasp.5.4.4.18Apr17-6-g9f103f2a35 (build May 20 2018 16:52:39) complex

 executed on             LinuxIFC date 2022.10.31  01:34:06

 INCAR:
 POTCAR:    PAW Ga
 POTCAR:    PAW As
 POTCAR:    PAW Ga
   VRHFIN =Ga: s2p1

   TITEL  = PAW Ga
   POMASS =   69.723; ZVAL   =    3.000    mass and valenz
   ENMAX  =  134.733; ENMIN  =  101.050 eV
   QCUT   =   -3.147; QGAM   =    6.294    optimization parameters

   Description
     l     E      TYP  RCUT    TYP  RCUT
     0   .000     23  2.600
     0   .000     23  2.600
     1   .000     23  2.600
     1   .000     23  2.600
     2   .100     23  2.600
     3  -.100      7  2.600

 POTCAR:    PAW As
   VRHFIN =As: s2p3

   TITEL  = PAW As
   POMASS =   74.922; ZVAL   =    5.000    mass and valenz
   ENMAX  =  208.733; ENMIN  =  156.550 eV
   QCUT   =   -3.917; QGAM   =    7.834    optimization parameters

   Description
     l     E      TYP  RCUT    TYP  RCUT
     0   .000     23  2.100
     0   .000     23  2.100
     1   .000     23  2.100
     1   .000     23  2.100
     2   .000     23  2.100
     3  -.100      7  2.100

  PAW Ga                                :
  PAW As                                :

 POSCAR: GaAs
  positions in direct lattice
  velocities in cartesian coordinates
 exchange correlation table for  LEXCH =        7
   RHO(1)=    0.500       N(1)  =     2000
   RHO(2)=  100.500       N(2)  =     4000

 ion  position               nearest neighbor table
   1  0.000  0.000  0.000-   2 2.49   2 2.49   2 2.49   2 2.49
   2  0.250  0.250  0.250-   1 2.49   1 2.49   1 2.49   1 2.49

  LATTYP: Found a face centered cubic cell.
 ALAT       =     5.7528388383

  Lattice vectors:

 A1 = (   0.0000000000,   2.8764194191,   2.8764194191)
 A2 = (   2.8764194191,   0.0000000000,   2.8764194191)
 A3 = (   2.8764194191,   2.8764194191,   0.0000000000)

Analysis of symmetry for initial positions (statically):
 Subroutine PRICEL returns:
 Original cell was already a primitive cell.

 Routine SETGRP: Setting up the symmetry group for a
 face centered cubic supercell.

 Subroutine GETGRP returns: Found 24 space group operations
 (whereof 24 operations were pure point group operations)
 out of a pool of 48 trial point group operations.

The static configuration has the point symmetry T_d .

Analysis of symmetry for dynamics (positions and initial velocities):
 Subroutine PRICEL returns:
 Original cell was already a primitive cell.

 Routine SETGRP: Setting up the symmetry group for a
 face centered cubic supercell.

 Subroutine GETGRP returns: Found 24 space group operations
 (whereof 24 operations were pure point group operations)
 out of a pool of 48 trial point group operations.

The dynamic configuration has the point symmetry T_d .

 Subroutine INISYM returns: Found 24 space group operations
 (whereof 24 operations are pure point group operations),
 and found     1 'primitive' translations

 KPOINTS: K-points along high symmetry lines for F
  interpolating k-points between supplied coordinates
  k-points in reciprocal lattice
Space group operators:
 irot       det(A)        alpha          n_x          n_y          n_z        tau_x        tau_y        tau_z
    1     1.000000     0.000001     1.000000     0.000000     0.000000     0.000000     0.000000     0.000000
    2     1.000000   120.000000    -0.577350    -0.577350    -0.577350     0.000000     0.000000     0.000000
    3     1.000000   120.000000     0.577350     0.577350     0.577350     0.000000     0.000000     0.000000
    4    -1.000000    90.000000     0.000000     0.000000    -1.000000     0.000000     0.000000     0.000000
    5    -1.000000   180.000000     0.000000     0.707107     0.707107     0.000000     0.000000     0.000000
    6    -1.000000    90.000000     0.000000     1.000000     0.000000     0.000000     0.000000     0.000000
    7     1.000000   180.000000     0.000000     0.000000     1.000000     0.000000     0.000000     0.000000
    8     1.000000   120.000000    -0.577350     0.577350     0.577350     0.000000     0.000000     0.000000
    9     1.000000   120.000000    -0.577350     0.577350    -0.577350     0.000000     0.000000     0.000000
   10    -1.000000    90.000000     0.000000     0.000000     1.000000     0.000000     0.000000     0.000000
   11    -1.000000    90.000000    -1.000000     0.000000     0.000000     0.000000     0.000000     0.000000
   12    -1.000000   180.000000     0.707107     0.000000     0.707107     0.000000     0.000000     0.000000
   13     1.000000   120.000000     0.577350    -0.577350     0.577350     0.000000     0.000000     0.000000
   14     1.000000   120.000000    -0.577350    -0.577350     0.577350     0.000000     0.000000     0.000000
   15     1.000000   180.000000     1.000000     0.000000     0.000000     0.000000     0.000000     0.000000
   16    -1.000000    90.000000     0.000000    -1.000000     0.000000     0.000000     0.000000     0.000000
   17    -1.000000   180.000000     0.707107     0.707107     0.000000     0.000000     0.000000     0.000000
   18    -1.000000    90.000000     1.000000     0.000000     0.000000     0.000000     0.000000     0.000000
   19     1.000000   120.000000     0.577350    -0.577350    -0.577350     0.000000     0.000000     0.000000
   20     1.000000   180.000000     0.000000     1.000000     0.000000     0.000000     0.000000     0.000000
   21     1.000000   120.000000     0.577350     0.577350    -0.577350     0.000000     0.000000     0.000000
   22    -1.000000   180.000000     0.000000    -0.707107     0.707107     0.000000     0.000000     0.000000
   23    -1.000000   180.000000     0.707107    -0.707107     0.000000     0.000000     0.000000     0.000000
   24    -1.000000   180.000000     0.707107     0.000000    -0.707107     0.000000     0.000000     0.000000

 SYSTEM =  GaAs
 POSCAR =  GaAs

 Startparameter for this run:
   NWRITE =      2    write-flag & timer
   PREC   = normal    normal or accurate (medium, high low for compatibility)
   ISTART =      0    job   : 0-new  1-cont  2-samecut
   ICHARG =     11    charge: 1-file 2-atom 10-const
   ISPIN  =      1    spin polarized calculation?
   LNONCOLLINEAR =      F non collinear calculations
   LSORBIT =      F    spin-orbit coupling
   INIWAV =      1    electr: 0-lowe 1-rand  2-diag
   LASPH  =      F    aspherical Exc in radial PAW
   METAGGA=      F    non-selfconsistent MetaGGA calc.

 Electronic Relaxation 1
   ENCUT  =  208.7 eV  15.34 Ry    3.92 a.u.   4.79  4.79  4.79*2*pi/ulx,y,z
   ENINI  =  208.7     initial cutoff
   ENAUG  =  462.8 eV  augmentation charge cutoff
   NELM   =     60;   NELMIN=  2; NELMDL=  0     # of ELM steps
   EDIFF  = 0.1E-05   stopping-criterion for ELM
   LREAL  =      F    real-space projection
   NLSPLINE    = F    spline interpolate recip. space projectors
   LCOMPAT=      F    compatible to vasp.4.4
   GGA_COMPAT  = T    GGA compatible to vasp.4.4-vasp.4.6
   LMAXPAW     = -100 max onsite density
   LMAXMIX     =    2 max onsite mixed and CHGCAR
   VOSKOWN=      0    Vosko Wilk Nusair interpolation
   ROPT   =    0.00000   0.00000
 Ionic relaxation
   EDIFFG = 0.1E-04   stopping-criterion for IOM
   NSW    =      0    number of steps for IOM
   NBLOCK =      1;   KBLOCK =      1    inner block; outer block
   IBRION =     -1    ionic relax: 0-MD 1-quasi-New 2-CG
   NFREE  =      0    steps in history (QN), initial steepest desc. (CG)
   ISIF   =      2    stress and relaxation
   IWAVPR =     10    prediction:  0-non 1-charg 2-wave 3-comb
   ISYM   =      2    0-nonsym 1-usesym 2-fastsym
   LCORR  =      T    Harris-Foulkes like correction to forces

   POTIM  = 0.5000    time-step for ionic-motion
   TEIN   =    0.0    initial temperature
   TEBEG  =    0.0;   TEEND  =   0.0 temperature during run
   SMASS  =  -3.00    Nose mass-parameter (am)
   estimated Nose-frequenzy (Omega)   =  0.10E-29 period in steps =****** mass=  -0.378E-27a.u.
   SCALEE = 1.0000    scale energy and forces
   NPACO  =    256;   APACO  = 16.0  distance and # of slots for P.C.
   PSTRESS=    0.0 pullay stress

  Mass of Ions in am
   POMASS =  69.72 74.92
  Ionic Valenz
   ZVAL   =   3.00  5.00
  Atomic Wigner-Seitz radii
  virtual crystal weights
   VCA    =   1.00  1.00
   NELECT =       8.0000    total number of electrons
   NUPDOWN=      -1.0000    fix difference up-down

 DOS related values:
   EMIN   =  10.00;   EMAX   =-10.00  energy-range for DOS
   EFERMI =   0.00
   ISMEAR =     1;   SIGMA  =   0.20  broadening in eV -4-tet -1-fermi 0-gaus

 Electronic relaxation 2 (details)
   IALGO  =     38    algorithm
   LDIAG  =      T    sub-space diagonalisation (order eigenvalues)
   LSUBROT=      F    optimize rotation matrix (better conditioning)
   TURBO    =      0    0=normal 1=particle mesh
   IRESTART =      0    0=no restart 2=restart with 2 vectors
   NREBOOT  =      0    no. of reboots
   NMIN     =      0    reboot dimension
   EREF     =   0.00    reference energy to select bands
   IMIX   =      4    mixing-type and parameters
     AMIX     =   0.40;   BMIX     =  1.00
     AMIX_MAG =   1.60;   BMIX_MAG =  1.00
     AMIN     =   0.10
     WC   =   100.;   INIMIX=   1;  MIXPRE=   1;  MAXMIX= -45

 Intra band minimization:
   WEIMIN = 0.0000     energy-eigenvalue tresh-hold
   EBREAK =  0.31E-07  absolut break condition
   DEPER  =   0.30     relativ break condition

   TIME   =   0.40     timestep for ELM

  volume/ion in A,a.u.               =      23.80       160.60
  Fermi-wavevector in a.u.,A,eV,Ry     =   0.903461  1.707293 11.105637  0.816241
  Thomas-Fermi vector in A             =   2.026789

 Write flags
   LWAVE        =      F    write WAVECAR
   LDOWNSAMPLE  =      F    k-point downsampling of WAVECAR
   LCHARG       =      F    write CHGCAR
   LVTOT        =      F    write LOCPOT, total local potential
   LVHAR        =      F    write LOCPOT, Hartree potential only
   LELF         =      F    write electronic localiz. function (ELF)
   LORBIT       =      0    0 simple, 1 ext, 2 COOP (PROOUT), +10 PAW based schemes

 Dipole corrections
   LMONO  =      F    monopole corrections only (constant potential shift)
   LDIPOL =      F    correct potential (dipole corrections)
   IDIPOL =      0    1-x, 2-y, 3-z, 4-all directions
   EPSILON=  1.0000000 bulk dielectric constant

 Exchange correlation treatment:
   GGA     =    --    GGA type
   VOSKOWN=      0    Vosko Wilk Nusair interpolation
   LHFCALC =     F    Hartree Fock is set to
   LHFONE  =     F    Hartree Fock one center treatment
   AEXX    =    0.0000 exact exchange contribution

 Linear response parameters
   LEPSILON=     F    determine dielectric tensor
   LRPA    =     F    only Hartree local field effects (RPA)
   LNABLA  =     F    use nabla operator in PAW spheres
   LVEL    =     F    velocity operator in full k-point grid
   LINTERFAST=   F  fast interpolation
   KINTER  =     0    interpolate to denser k-point grid
   CSHIFT  =0.1000    complex shift for real part using Kramers Kronig
   OMEGAMAX=  -1.0    maximum frequency
   DEG_THRESHOLD= 0.2000000E-02 threshold for treating states as degnerate
   RTIME   =   -0.100 relaxation time in fs
[...]
   0.43877551  0.43877551  0.43877551       0.004
   0.42857143  0.42857143  0.42857143       0.004
   0.41836735  0.41836735  0.41836735       0.004
   0.40816327  0.40816327  0.40816327       0.004
[...]
   0.50000000  0.07142857  0.57142857       0.004
   0.50000000  0.06632653  0.56632653       0.004
   0.50000000  0.06122449  0.56122449       0.004
   0.50000000  0.05612245  0.55612245       0.004
   0.50000000  0.05102041  0.55102041       0.004
   0.50000000  0.04591837  0.54591837       0.004
   0.50000000  0.04081633  0.54081633       0.004
   0.50000000  0.03571429  0.53571429       0.004
   0.50000000  0.03061224  0.53061224       0.004
   0.50000000  0.02551020  0.52551020       0.004
   0.50000000  0.02040816  0.52040816       0.004
   0.50000000  0.01530612  0.51530612       0.004
   0.50000000  0.01020408  0.51020408       0.004
   0.50000000  0.00510204  0.50510204       0.004
   0.50000000  0.00000000  0.50000000       0.004

 position of ions in fractional coordinates (direct lattice)
   0.00000000  0.00000000  0.00000000
   0.25000000  0.25000000  0.25000000

 position of ions in cartesian coordinates  (Angst):
   0.00000000  0.00000000  0.00000000
   1.43820971  1.43820971  1.43820971

 k-point  1 :   0.5000 0.2500 0.7500  plane waves:     328
 k-point  2 :   0.5000 0.2551 0.7449  plane waves:     328
 k-point  3 :   0.5000 0.2602 0.7398  plane waves:     328
 k-point  4 :   0.5000 0.2653 0.7347  plane waves:     328
 k-point  5 :   0.5000 0.2704 0.7296  plane waves:     326
 k-point  6 :   0.5000 0.2755 0.7245  plane waves:     324
 k-point  7 :   0.5000 0.2806 0.7194  plane waves:     324
 k-point  8 :   0.5000 0.2857 0.7143  plane waves:     322
 k-point  9 :   0.5000 0.2908 0.7092  plane waves:     326
 k-point 10 :   0.5000 0.2959 0.7041  plane waves:     326
 k-point 11 :   0.5000 0.3010 0.6990  plane waves:     326
 k-point 12 :   0.5000 0.3061 0.6939  plane waves:     324
 k-point 13 :   0.5000 0.3112 0.6888  plane waves:     324
 k-point 14 :   0.5000 0.3163 0.6837  plane waves:     324
 k-point 15 :   0.5000 0.3214 0.6786  plane waves:     326
 k-point 16 :   0.5000 0.3265 0.6735  plane waves:     324
 k-point 17 :   0.5000 0.3316 0.6684  plane waves:     324
 k-point 18 :   0.5000 0.3367 0.6633  plane waves:     324
 k-point 19 :   0.5000 0.3418 0.6582  plane waves:     324
 k-point 20 :   0.5000 0.3469 0.6531  plane waves:     322
 k-point 21 :   0.5000 0.3520 0.6480  plane waves:     322
 k-point 22 :   0.5000 0.3571 0.6429  plane waves:     322
 k-point 23 :   0.5000 0.3622 0.6378  plane waves:     322
 k-point 24 :   0.5000 0.3673 0.6327  plane waves:     322
 k-point 25 :   0.5000 0.3724 0.6276  plane waves:     328
 k-point 26 :   0.5000 0.3776 0.6224  plane waves:     328
 k-point 27 :   0.5000 0.3827 0.6173  plane waves:     328
 k-point 28 :   0.5000 0.3878 0.6122  plane waves:     326
 k-point 29 :   0.5000 0.3929 0.6071  plane waves:     326
 k-point 30 :   0.5000 0.3980 0.6020  plane waves:     326
 k-point 31 :   0.5000 0.4031 0.5969  plane waves:     326
 k-point 32 :   0.5000 0.4082 0.5918  plane waves:     328
 k-point 33 :   0.5000 0.4133 0.5867  plane waves:     326
 k-point 34 :   0.5000 0.4184 0.5816  plane waves:     326
 k-point 35 :   0.5000 0.4235 0.5765  plane waves:     326
 k-point 36 :   0.5000 0.4286 0.5714  plane waves:     326
 k-point 37 :   0.5000 0.4337 0.5663  plane waves:     328
 k-point 38 :   0.5000 0.4388 0.5612  plane waves:     328
 k-point 39 :   0.5000 0.4439 0.5561  plane waves:     328
 k-point 40 :   0.5000 0.4490 0.5510  plane waves:     328
 k-point 41 :   0.5000 0.4541 0.5459  plane waves:     330
 k-point 42 :   0.5000 0.4592 0.5408  plane waves:     330
 k-point 43 :   0.5000 0.4643 0.5357  plane waves:     334
 k-point 44 :   0.5000 0.4694 0.5306  plane waves:     334
 k-point 45 :   0.5000 0.4745 0.5255  plane waves:     332
 k-point 46 :   0.5000 0.4796 0.5204  plane waves:     332
 k-point 47 :   0.5000 0.4847 0.5153  plane waves:     332
 k-point 48 :   0.5000 0.4898 0.5102  plane waves:     332
 k-point 49 :   0.5000 0.4949 0.5051  plane waves:     332
 k-point 50 :   0.5000 0.5000 0.5000  plane waves:     332
 k-point 51 :   0.5000 0.5000 0.5000  plane waves:     332
 k-point 52 :   0.4898 0.4898 0.4898  plane waves:     332
 k-point 53 :   0.4796 0.4796 0.4796  plane waves:     332
 k-point 54 :   0.4694 0.4694 0.4694  plane waves:     332
 k-point 55 :   0.4592 0.4592 0.4592  plane waves:     335
 k-point 56 :   0.4490 0.4490 0.4490  plane waves:     335
 k-point 57 :   0.4388 0.4388 0.4388  plane waves:     329
 k-point 58 :   0.4286 0.4286 0.4286  plane waves:     329
 k-point 59 :   0.4184 0.4184 0.4184  plane waves:     329
 k-point 60 :   0.4082 0.4082 0.4082  plane waves:     329
[...]
 k-point 85 :   0.1531 0.1531 0.1531  plane waves:     326
 k-point 86 :   0.1429 0.1429 0.1429  plane waves:     326
 k-point 87 :   0.1327 0.1327 0.1327  plane waves:     326
 k-point 88 :   0.1224 0.1224 0.1224  plane waves:     329
 k-point 89 :   0.1122 0.1122 0.1122  plane waves:     329
 k-point 90 :   0.1020 0.1020 0.1020  plane waves:     329
 k-point 91 :   0.0918 0.0918 0.0918  plane waves:     332
 k-point 92 :   0.0816 0.0816 0.0816  plane waves:     331
 k-point 93 :   0.0714 0.0714 0.0714  plane waves:     331
 k-point 94 :   0.0612 0.0612 0.0612  plane waves:     331
 k-point 95 :   0.0510 0.0510 0.0510  plane waves:     331
 k-point 96 :   0.0408 0.0408 0.0408  plane waves:     331
 k-point 97 :   0.0306 0.0306 0.0306  plane waves:     331
 k-point 98 :   0.0204 0.0204 0.0204  plane waves:     331
 k-point 99 :   0.0102 0.0102 0.0102  plane waves:     331
 k-point ** :   0.0000 0.0000 0.0000  plane waves:     331
 k-point ** :   0.0000 0.0000 0.0000  plane waves:     331
 k-point ** :   0.0102 0.0000 0.0102  plane waves:     331
 k-point ** :   0.0204 0.0000 0.0204  plane waves:     331
 k-point ** :   0.0306 0.0000 0.0306  plane waves:     331
 k-point ** :   0.0408 0.0000 0.0408  plane waves:     331
 k-point ** :   0.0510 0.0000 0.0510  plane waves:     331
 k-point ** :   0.0612 0.0000 0.0612  plane waves:     331
 k-point ** :   0.0714 0.0000 0.0714  plane waves:     331
 k-point ** :   0.0816 0.0000 0.0816  plane waves:     327
 k-point ** :   0.0918 0.0000 0.0918  plane waves:     327
 k-point ** :   0.1020 0.0000 0.1020  plane waves:     327
 k-point ** :   0.1122 0.0000 0.1122  plane waves:     327
 k-point ** :   0.1224 0.0000 0.1224  plane waves:     327
 k-point ** :   0.1327 0.0000 0.1327  plane waves:     327
 k-point ** :   0.1429 0.0000 0.1429  plane waves:     327
 k-point ** :   0.1531 0.0000 0.1531  plane waves:     327
 k-point ** :   0.1633 0.0000 0.1633  plane waves:     327
 k-point ** :   0.1735 0.0000 0.1735  plane waves:     327
 k-point ** :   0.1837 0.0000 0.1837  plane waves:     327
 k-point ** :   0.1939 0.0000 0.1939  plane waves:     331
 k-point ** :   0.2041 0.0000 0.2041  plane waves:     331
 k-point ** :   0.2143 0.0000 0.2143  plane waves:     331
 k-point ** :   0.2245 0.0000 0.2245  plane waves:     323
 k-point ** :   0.2347 0.0000 0.2347  plane waves:     315
 k-point ** :   0.2449 0.0000 0.2449  plane waves:     311
 k-point ** :   0.2551 0.0000 0.2551  plane waves:     311
 k-point ** :   0.2653 0.0000 0.2653  plane waves:     315
 k-point ** :   0.2755 0.0000 0.2755  plane waves:     323
 k-point ** :   0.2857 0.0000 0.2857  plane waves:     323
 k-point ** :   0.2959 0.0000 0.2959  plane waves:     323
 k-point ** :   0.3061 0.0000 0.3061  plane waves:     323
 k-point ** :   0.3163 0.0000 0.3163  plane waves:     323
 k-point ** :   0.3265 0.0000 0.3265  plane waves:     323
 k-point ** :   0.3367 0.0000 0.3367  plane waves:     323
 k-point ** :   0.3469 0.0000 0.3469  plane waves:     323
 k-point ** :   0.3571 0.0000 0.3571  plane waves:     323
 k-point ** :   0.3673 0.0000 0.3673  plane waves:     323
 k-point ** :   0.3776 0.0000 0.3776  plane waves:     323
 k-point ** :   0.3878 0.0000 0.3878  plane waves:     323
 k-point ** :   0.3980 0.0000 0.3980  plane waves:     322
 k-point ** :   0.4082 0.0000 0.4082  plane waves:     322
 k-point ** :   0.4184 0.0000 0.4184  plane waves:     322
 k-point ** :   0.4286 0.0000 0.4286  plane waves:     326
 k-point ** :   0.4388 0.0000 0.4388  plane waves:     326
 k-point ** :   0.4490 0.0000 0.4490  plane waves:     326
 k-point ** :   0.4592 0.0000 0.4592  plane waves:     334
 k-point ** :   0.4694 0.0000 0.4694  plane waves:     334
 k-point ** :   0.4796 0.0000 0.4796  plane waves:     334
 k-point ** :   0.4898 0.0000 0.4898  plane waves:     334
 k-point ** :   0.5000 0.0000 0.5000  plane waves:     326
 k-point ** :   0.5000 0.0000 0.5000  plane waves:     326
 k-point ** :   0.5000 0.0051 0.5051  plane waves:     326
 k-point ** :   0.5000 0.0102 0.5102  plane waves:     330
 k-point ** :   0.5000 0.0153 0.5153  plane waves:     330
 k-point ** :   0.5000 0.0204 0.5204  plane waves:     334
 k-point ** :   0.5000 0.0255 0.5255  plane waves:     334
 k-point ** :   0.5000 0.0306 0.5306  plane waves:     334
 k-point ** :   0.5000 0.0357 0.5357  plane waves:     334
 k-point ** :   0.5000 0.0408 0.5408  plane waves:     332
[...]
 k-point ** :   0.5000 0.0714 0.5714  plane waves:     328
 k-point ** :   0.5000 0.0663 0.5663  plane waves:     328
 k-point ** :   0.5000 0.0612 0.5612  plane waves:     328
 k-point ** :   0.5000 0.0561 0.5561  plane waves:     332
 k-point ** :   0.5000 0.0510 0.5510  plane waves:     332
 k-point ** :   0.5000 0.0459 0.5459  plane waves:     332
 k-point ** :   0.5000 0.0408 0.5408  plane waves:     332
 k-point ** :   0.5000 0.0357 0.5357  plane waves:     334
 k-point ** :   0.5000 0.0306 0.5306  plane waves:     334
 k-point ** :   0.5000 0.0255 0.5255  plane waves:     334
 k-point ** :   0.5000 0.0204 0.5204  plane waves:     334
 k-point ** :   0.5000 0.0153 0.5153  plane waves:     330
 k-point ** :   0.5000 0.0102 0.5102  plane waves:     330
 k-point ** :   0.5000 0.0051 0.5051  plane waves:     326
 k-point ** :   0.5000 0.0000 0.5000  plane waves:     326

 maximum and minimum number of plane-waves per node :       335      311

 maximum number of plane-waves:       335
 maximum index in each direction:
   IXMAX=    4   IYMAX=    4   IZMAX=    4
   IXMIN=   -5   IYMIN=   -5   IZMIN=   -5

 serial   3D FFT for wavefunctions
 parallel 3D FFT for charge:
    minimum data exchange during FFTs selected (reduces bandwidth)

 initial charge density was supplied:
 number of electron       8.0000012 magnetization
 keeping initial charge density in first step

 Maximum index for augmentation-charges         4093 (set IRDMAX)

 First call to EWALD:  gamma=   0.489
 Maximum number of real-space cells 3x 3x 3
 Maximum number of reciprocal cells 3x 3x 3

--------------------------------------- Iteration      1(   1)  ---------------------------------------

 eigenvalue-minimisations  :  4072
 total energy-change (2. order) : 0.5404555E+01  (-0.2110313E+03)
 number of electron       8.0000012 magnetization
 augmentation part        8.0000012 magnetization

 Free energy of the ion-electron system (eV)
  alpha Z        PSCENC =        17.36684317
  Ewald energy   TEWEN  =      -225.20590383
  -Hartree energ DENC   =       -22.14721296
  -exchange      EXHF   =         0.00000000
  -V(xc)+E(xc)   XCENC  =       -30.94258512
  PAW double counting   =       130.52885347      -85.35596429
  entropy T*S    EENTRO =        -0.00021072
  eigenvalues    EBANDS =        -8.44431630
  atomic energy  EATOM  =       229.60505158
  Solvation  Ediel_sol  =         0.00000000
  free energy    TOTEN  =         5.40455499 eV

  energy without entropy =        5.40476570  energy(sigma->0) =        5.40462523

[...]

 eigenvalue-minimisations  :  6112
 total energy-change (2. order) :-0.1283177E+02  (-0.1204493E+02)
 number of electron       8.0000012 magnetization
 augmentation part        8.0000012 magnetization

[...]

--------------------------------------- Iteration      1(   6)  ---------------------------------------

 eigenvalue-minimisations  :  5744
 total energy-change (2. order) :-0.2767990E-08  (-0.2590997E-08)
 number of electron       8.0000012 magnetization
 augmentation part        8.0000012 magnetization

 Free energy of the ion-electron system (eV)
  alpha Z        PSCENC =        17.36684317
  Ewald energy   TEWEN  =      -225.20590383
  -Hartree energ DENC   =       -22.14721296
  -exchange      EXHF   =         0.00000000
  -V(xc)+E(xc)   XCENC  =       -30.94258512
  PAW double counting   =       130.52885347      -85.35596429
  entropy T*S    EENTRO =         0.00180779
  eigenvalues    EBANDS =       -21.47822163
  atomic energy  EATOM  =       229.60505158
  Solvation  Ediel_sol  =         0.00000000
  free energy    TOTEN  =        -7.62733184 eV

  energy without entropy =       -7.62913962  energy(sigma->0) =       -7.62793443

 average (electrostatic) potential at core
  the test charge radii are     1.2767  1.0621
  (the norm of the test charge is              1.0000)
       1 -16.0624       2 -52.7026

 E-fermi :   2.4608     XC(G=0):  -9.0114     alpha+bet : -8.1875

 k-point     1 :       0.5000    0.2500    0.7500
  band No.  band energies     occupation
      1      -7.8004      2.00000
      2      -4.0295      2.00000
      3      -0.9494      2.00000
      4      -0.7396      2.00000
      5       6.7468     -0.00000
      6       7.0451     -0.00000
      7       7.6130     -0.00000
      8       8.3805      0.00000

[...]

 k-point   250 :       0.5000    0.0000    0.5000
  band No.  band energies     occupation
      1      -7.8360      2.00000
      2      -4.2053      2.00000
      3      -0.1372      2.00000
      4      -0.1370      2.00000
      5       3.9092     -0.00000
      6       4.0396     -0.00000
      7      12.1163      0.00000
      8      12.1168      0.00000

 soft charge-density along one line, spin component           1
         0         1         2         3         4         5         6         7         8         9
 total charge-density along one line

------------------------ aborting loop because EDIFF is reached ----------------------------------------

  FORCE on cell =-STRESS in cart. coord.  units (eV):
  Direction    XX          YY          ZZ          XY          YZ          ZX
  Alpha Z    17.36684    17.36684    17.36684
  Ewald     -75.06867   -75.06867   -75.06867    -0.00000     0.00000     0.00000
  Hartree     7.74355     7.74355     7.74355    -0.00000    -0.00000    -0.00000
  E(xc)     -29.88171   -29.88171   -29.88171     0.00001     0.00001     0.00001
  Local     -31.63867   -31.63867   -31.63867     0.00037     0.00037     0.00037
  n-local    47.43462    43.97563    46.70827    -0.80415    -0.61237    -0.80436
  augment     1.08214     1.08214     1.08214    -0.00019    -0.00019    -0.00019
  Kinetic    67.28414    61.19113    68.61063    -2.02200    -1.71676    -2.02193
  Fock        0.00000     0.00000     0.00000     0.00000     0.00000     0.00000
  Total       1.33830     1.33830     1.33830    -0.00000     0.00000    -0.00000
  in kB      45.04835    45.04835    45.04835    -0.00000     0.00000    -0.00000

 VOLUME and BASIS-vectors are now :
  energy-cutoff  :      208.73
  volume of cell :       47.60
      direct lattice vectors                 reciprocal lattice vectors
     0.000000000  2.876419419  2.876419419    -0.173827223  0.173827223  0.173827223
     2.876419419  0.000000000  2.876419419     0.173827223 -0.173827223  0.173827223
     2.876419419  2.876419419  0.000000000     0.173827223  0.173827223 -0.173827223

  length of vectors
     4.067871354  4.067871354  4.067871354     0.301077582  0.301077582  0.301077582

 FORCES acting on ions
    electron-ion (+dipol)            ewald-force                    non-local-force                 convergence-correction
   -.113E-04 -.113E-04 -.113E-04   -.172E-14 0.281E-14 -.450E-14   0.347E-17 -.434E-18 -.434E-18   -.354E-07 -.354E-07 -.354E-07
   -.273E-05 -.273E-05 -.273E-05   0.173E-14 -.297E-14 0.437E-14   0.382E-16 0.139E-16 0.173E-16   -.102E-06 -.102E-06 -.102E-06
   -.140E-04 -.140E-04 -.140E-04   0.994E-17 -.152E-15 -.130E-15   0.416E-16 0.134E-16 0.169E-16   -.138E-06 -.138E-06 -.138E-06

 POSITION                                       TOTAL-FORCE (eV/Angst)
      0.00000      0.00000      0.00000         0.000000      0.000000      0.000000
      1.43821      1.43821      1.43821        -0.000000     -0.000000     -0.000000
    total drift:                               -0.000014     -0.000014     -0.000014

  FREE ENERGIE OF THE ION-ELECTRON SYSTEM (eV)
  free  energy   TOTEN  =        -7.62733184 eV

  energy  without entropy=       -7.62913962  energy(sigma->0) =       -7.62793443