 vasp.5.4.4.18Apr17-6-g9f103f2a35 (build May 20 2018 16:52:39) complex

 executed on             LinuxIFC date 2022.11.17  22:01:40

 INCAR:
 POTCAR:    PAW Nb_pv 09Jan2002

 POTCAR:    PAW Nb_pv 09Jan2002
   VRHFIN =Nb: s1d4

   TITEL  = PAW Nb_pv 09Jan2002
   POMASS =   92.910; ZVAL   =   11.000    mass and valenz
   ENMAX  =  207.263; ENMIN  =  155.447 eV

  PAW Nb_pv 09Jan2002                   :

 POSCAR: primitive Nb
  positions in direct lattice
 exchange correlation table for  LEXCH =        2
   RHO(1)=    0.500       N(1)  =     2000
   RHO(2)=  100.500       N(2)  =     4000

 ion  position               nearest neighbor table
   1  0.000  0.000  0.000-

  LATTYP: Found a body centered cubic cell.
 ALAT       =     3.3008000000

  Lattice vectors:

 A1 = (  -1.6504000000,   1.6504000000,   1.6504000000)
 A2 = (   1.6504000000,  -1.6504000000,   1.6504000000)
 A3 = (   1.6504000000,   1.6504000000,  -1.6504000000)

Analysis of symmetry for initial positions (statically):
 Subroutine PRICEL returns:
 Original cell was already a primitive cell.

 Routine SETGRP: Setting up the symmetry group for a
 body centered cubic supercell.

 Subroutine GETGRP returns: Found 48 space group operations
 (whereof 48 operations were pure point group operations)
 out of a pool of 48 trial point group operations.

The static configuration has the point symmetry O_h .

Analysis of symmetry for dynamics (positions and initial velocities):
 Subroutine PRICEL returns:
 Original cell was already a primitive cell.

 Routine SETGRP: Setting up the symmetry group for a
 body centered cubic supercell.

 Subroutine GETGRP returns: Found 48 space group operations
 (whereof 48 operations were pure point group operations)
 out of a pool of 48 trial point group operations.

The dynamic configuration has the point symmetry O_h .

 Subroutine INISYM returns: Found 48 space group operations
 (whereof 48 operations are pure point group operations),
 and found     1 'primitive' translations

 KPOINTS: 16*16*16

Automatic generation of k-mesh.
Space group operators:
 irot       det(A)        alpha          n_x          n_y          n_z        tau_x        tau_y        tau_z
    1     1.000000     0.000000     1.000000     0.000000     0.000000     0.000000     0.000000     0.000000
    2    -1.000000     0.000000     1.000000     0.000000     0.000000     0.000000     0.000000     0.000000
    3     1.000000   120.000000    -0.577350    -0.577350    -0.577350     0.000000     0.000000     0.000000
    4    -1.000000   120.000000    -0.577350    -0.577350    -0.577350     0.000000     0.000000     0.000000
    5     1.000000   120.000000     0.577350     0.577350     0.577350     0.000000     0.000000     0.000000
    6    -1.000000   120.000000     0.577350     0.577350     0.577350     0.000000     0.000000     0.000000
    7     1.000000    90.000000     0.000000     0.000000    -1.000000     0.000000     0.000000     0.000000
    8    -1.000000    90.000000     0.000000     0.000000    -1.000000     0.000000     0.000000     0.000000
    9     1.000000   180.000000     0.000000     0.707107     0.707107     0.000000     0.000000     0.000000
   10    -1.000000   180.000000     0.000000     0.707107     0.707107     0.000000     0.000000     0.000000
   11     1.000000    90.000000     0.000000     1.000000     0.000000     0.000000     0.000000     0.000000
   12    -1.000000    90.000000     0.000000     1.000000     0.000000     0.000000     0.000000     0.000000
   13     1.000000   180.000000     0.000000     0.000000     1.000000     0.000000     0.000000     0.000000
   14    -1.000000   180.000000     0.000000     0.000000     1.000000     0.000000     0.000000     0.000000
   15     1.000000   120.000000    -0.577350     0.577350     0.577350     0.000000     0.000000     0.000000
   16    -1.000000   120.000000    -0.577350     0.577350     0.577350     0.000000     0.000000     0.000000
   17     1.000000   120.000000    -0.577350     0.577350    -0.577350     0.000000     0.000000     0.000000
   18    -1.000000   120.000000    -0.577350     0.577350    -0.577350     0.000000     0.000000     0.000000
   19     1.000000    90.000000     0.000000     0.000000     1.000000     0.000000     0.000000     0.000000
   20    -1.000000    90.000000     0.000000     0.000000     1.000000     0.000000     0.000000     0.000000
   21     1.000000    90.000000    -1.000000     0.000000     0.000000     0.000000     0.000000     0.000000
   22    -1.000000    90.000000    -1.000000     0.000000     0.000000     0.000000     0.000000     0.000000
   23     1.000000   180.000000     0.707107     0.000000     0.707107     0.000000     0.000000     0.000000
   24    -1.000000   180.000000     0.707107     0.000000     0.707107     0.000000     0.000000     0.000000
   25     1.000000   120.000000     0.577350    -0.577350     0.577350     0.000000     0.000000     0.000000
   26    -1.000000   120.000000     0.577350    -0.577350     0.577350     0.000000     0.000000     0.000000
   27     1.000000   120.000000    -0.577350    -0.577350     0.577350     0.000000     0.000000     0.000000
   28    -1.000000   120.000000    -0.577350    -0.577350     0.577350     0.000000     0.000000     0.000000
   29     1.000000   180.000000     1.000000     0.000000     0.000000     0.000000     0.000000     0.000000
   30    -1.000000   180.000000     1.000000     0.000000     0.000000     0.000000     0.000000     0.000000
   31     1.000000    90.000000     0.000000    -1.000000     0.000000     0.000000     0.000000     0.000000
   32    -1.000000    90.000000     0.000000    -1.000000     0.000000     0.000000     0.000000     0.000000
   33     1.000000   180.000000     0.707107     0.707107     0.000000     0.000000     0.000000     0.000000
   34    -1.000000   180.000000     0.707107     0.707107     0.000000     0.000000     0.000000     0.000000
   35     1.000000    90.000000     1.000000     0.000000     0.000000     0.000000     0.000000     0.000000
   36    -1.000000    90.000000     1.000000     0.000000     0.000000     0.000000     0.000000     0.000000
   37     1.000000   120.000000     0.577350    -0.577350    -0.577350     0.000000     0.000000     0.000000
   38    -1.000000   120.000000     0.577350    -0.577350    -0.577350     0.000000     0.000000     0.000000
   39     1.000000   180.000000     0.000000     1.000000     0.000000     0.000000     0.000000     0.000000
   40    -1.000000   180.000000     0.000000     1.000000     0.000000     0.000000     0.000000     0.000000
   41     1.000000   120.000000     0.577350     0.577350    -0.577350     0.000000     0.000000     0.000000
   42    -1.000000   120.000000     0.577350     0.577350    -0.577350     0.000000     0.000000     0.000000
   43     1.000000   180.000000     0.000000    -0.707107     0.707107     0.000000     0.000000     0.000000
   44    -1.000000   180.000000     0.000000    -0.707107     0.707107     0.000000     0.000000     0.000000
   45     1.000000   180.000000     0.707107    -0.707107     0.000000     0.000000     0.000000     0.000000
   46    -1.000000   180.000000     0.707107    -0.707107     0.000000     0.000000     0.000000     0.000000
   47     1.000000   180.000000     0.707107     0.000000    -0.707107     0.000000     0.000000     0.000000
   48    -1.000000   180.000000     0.707107     0.000000    -0.707107     0.000000     0.000000     0.000000

 Subroutine IBZKPT returns following result:

 Found    140 irreducible k-points:

 Following reciprocal coordinates:
            Coordinates               Weight
  0.031250  0.031250  0.031250      8.000000
  0.093750  0.031250  0.031250     24.000000
  0.156250  0.031250  0.031250     24.000000
  0.218750  0.031250  0.031250     24.000000
  0.281250  0.031250  0.031250     24.000000
  0.343750  0.031250  0.031250     24.000000
  0.406250  0.031250  0.031250     24.000000
  0.468750  0.031250  0.031250     12.000000
 -0.031250  0.031250  0.031250      6.000000
  0.093750  0.093750  0.031250     24.000000
  0.156250  0.093750  0.031250     48.000000
  0.218750  0.093750  0.031250     48.000000
  0.281250  0.093750  0.031250     48.000000
  0.343750  0.093750  0.031250     48.000000
  0.406250  0.093750  0.031250     48.000000
 -0.093750  0.093750  0.031250     24.000000
  0.156250  0.156250  0.031250     24.000000
  0.218750  0.156250  0.031250     48.000000
  0.281250  0.156250  0.031250     48.000000
  0.343750  0.156250  0.031250     48.000000
  0.406250  0.156250  0.031250     24.000000
 -0.156250  0.156250  0.031250     24.000000
 -0.093750  0.156250  0.031250     24.000000
  0.218750  0.218750  0.031250     24.000000
  0.281250  0.218750  0.031250     48.000000
  0.343750  0.218750  0.031250     48.000000
 -0.218750  0.218750  0.031250     24.000000
 -0.156250  0.218750  0.031250     48.000000
  0.281250  0.281250  0.031250     24.000000
  0.343750  0.281250  0.031250     24.000000
 -0.281250  0.281250  0.031250     24.000000
 -0.218750  0.281250  0.031250     48.000000
 -0.156250  0.281250  0.031250     24.000000
 -0.343750  0.343750  0.031250     24.000000
 -0.281250  0.343750  0.031250     48.000000
 -0.218750  0.343750  0.031250     48.000000
 -0.406250  0.406250  0.031250     24.000000
 -0.343750  0.406250  0.031250     48.000000
 -0.281250  0.406250  0.031250     48.000000
 -0.218750  0.406250  0.031250     24.000000
 -0.468750  0.468750  0.031250     24.000000
 -0.406250  0.468750  0.031250     48.000000
 -0.343750  0.468750  0.031250     48.000000
 -0.281250  0.468750  0.031250     48.000000
 -0.468750 -0.468750  0.031250     24.000000
 -0.406250 -0.468750  0.031250     48.000000
 -0.343750 -0.468750  0.031250     48.000000
 -0.281250 -0.468750  0.031250     24.000000
 -0.406250 -0.406250  0.031250     24.000000
 -0.343750 -0.406250  0.031250     48.000000
 -0.343750 -0.343750  0.031250      8.000000
  0.093750  0.093750  0.093750      8.000000
  0.156250  0.093750  0.093750     24.000000
  0.218750  0.093750  0.093750     24.000000
  0.281250  0.093750  0.093750     24.000000
  0.343750  0.093750  0.093750     24.000000
  0.406250  0.093750  0.093750     12.000000
 -0.093750  0.093750  0.093750      6.000000
  0.156250  0.156250  0.093750     24.000000
  0.218750  0.156250  0.093750     48.000000
[...]
 -0.406250  0.406250  0.281250     24.000000
 -0.343750  0.406250  0.281250     24.000000
 -0.468750  0.468750  0.281250     24.000000
 -0.406250  0.468750  0.281250     48.000000
 -0.468750 -0.468750  0.281250     24.000000
 -0.406250 -0.468750  0.281250     24.000000
 -0.343750  0.343750  0.343750      6.000000
 -0.406250  0.406250  0.343750     24.000000
 -0.468750  0.468750  0.343750     24.000000
 -0.406250  0.468750  0.343750     24.000000
 -0.468750 -0.468750  0.343750     24.000000
 -0.406250  0.406250  0.406250      6.000000
 -0.468750  0.468750  0.406250     24.000000
 -0.468750 -0.468750  0.406250      8.000000
 -0.468750  0.468750  0.468750      6.000000

 Following cartesian coordinates:
            Coordinates               Weight
  0.062500  0.062500  0.062500      8.000000
  0.062500  0.125000  0.125000     24.000000
[...]
  -0.40625000  0.40625000  0.28125000       0.006
  -0.34375000  0.40625000  0.28125000       0.006
  -0.46875000  0.46875000  0.28125000       0.006
  -0.40625000  0.46875000  0.28125000       0.012
  -0.46875000 -0.46875000  0.28125000       0.006
  -0.40625000 -0.46875000  0.28125000       0.006
  -0.34375000  0.34375000  0.34375000       0.001
  -0.40625000  0.40625000  0.34375000       0.006
  -0.46875000  0.46875000  0.34375000       0.006
  -0.40625000  0.46875000  0.34375000       0.006
  -0.46875000 -0.46875000  0.34375000       0.006
  -0.40625000  0.40625000  0.40625000       0.001
  -0.46875000  0.46875000  0.40625000       0.006
  -0.46875000 -0.46875000  0.40625000       0.002
  -0.46875000  0.46875000  0.46875000       0.001

 position of ions in fractional coordinates (direct lattice)
   0.00000000  0.00000000  0.00000000

 position of ions in cartesian coordinates  (Angst):
   0.00000000  0.00000000  0.00000000

 k-point  1 :   0.0312 0.0312 0.0312  plane waves:     207
 k-point  2 :   0.0938 0.0312 0.0312  plane waves:     209
 k-point  3 :   0.1563 0.0313 0.0312  plane waves:     207
 k-point  4 :   0.2188 0.0312 0.0312  plane waves:     208
 k-point  5 :   0.2812 0.0312 0.0312  plane waves:     207
 k-point  6 :   0.3438 0.0312 0.0312  plane waves:     203
 k-point  7 :   0.4063 0.0312 0.0312  plane waves:     208
 k-point  8 :   0.4688 0.0312 0.0312  plane waves:     208
 k-point  9 :  -0.0312 0.0312 0.0312  plane waves:     209
 k-point 10 :   0.0938 0.0938 0.0312  plane waves:     208
 k-point 11 :   0.1563 0.0937 0.0312  plane waves:     208
 k-point 12 :   0.2188 0.0938 0.0312  plane waves:     209
 k-point 13 :   0.2812 0.0938 0.0312  plane waves:     206
 k-point 14 :   0.3438 0.0938 0.0312  plane waves:     210
 k-point 15 :   0.4062 0.0937 0.0312  plane waves:     210
 k-point 16 :  -0.0938 0.0938 0.0312  plane waves:     211
 k-point 17 :   0.1563 0.1563 0.0312  plane waves:     208
 k-point 18 :   0.2188 0.1563 0.0312  plane waves:     210
 k-point 19 :   0.2812 0.1562 0.0312  plane waves:     211
 k-point 20 :   0.3438 0.1562 0.0312  plane waves:     211
 k-point 21 :   0.4063 0.1563 0.0312  plane waves:     208
 k-point 22 :  -0.1562 0.1562 0.0313  plane waves:     209
 k-point 23 :  -0.0938 0.1562 0.0313  plane waves:     210
 k-point 24 :   0.2188 0.2188 0.0312  plane waves:     211
 k-point 25 :   0.2812 0.2188 0.0312  plane waves:     212
 k-point 26 :   0.3438 0.2188 0.0312  plane waves:     212
 k-point 27 :  -0.2188 0.2188 0.0312  plane waves:     211
 k-point 28 :  -0.1562 0.2188 0.0312  plane waves:     209
 k-point 29 :   0.2812 0.2812 0.0312  plane waves:     213
 k-point 30 :   0.3438 0.2813 0.0312  plane waves:     214
 k-point 31 :  -0.2812 0.2812 0.0312  plane waves:     207
 k-point 32 :  -0.2188 0.2812 0.0312  plane waves:     210
 k-point 33 :  -0.1563 0.2812 0.0313  plane waves:     211
 k-point 34 :  -0.3438 0.3438 0.0312  plane waves:     207
 k-point 35 :  -0.2812 0.3438 0.0312  plane waves:     207
 k-point 36 :  -0.2188 0.3438 0.0312  plane waves:     209
 k-point 37 :  -0.4063 0.4063 0.0312  plane waves:     205
 k-point 38 :  -0.3438 0.4063 0.0312  plane waves:     207
 k-point 39 :  -0.2812 0.4062 0.0313  plane waves:     212
 k-point 40 :  -0.2188 0.4063 0.0312  plane waves:     208
 k-point 41 :  -0.4688 0.4688 0.0312  plane waves:     208
 k-point 42 :  -0.4062 0.4688 0.0312  plane waves:     209
 k-point 43 :  -0.3438 0.4688 0.0312  plane waves:     210
 k-point 44 :  -0.2812 0.4688 0.0312  plane waves:     216
 k-point 45 :  -0.4688-0.4688 0.0312  plane waves:     208
 k-point 46 :  -0.4063-0.4688 0.0312  plane waves:     214
 k-point 47 :  -0.3438-0.4688 0.0312  plane waves:     215
 k-point 48 :  -0.2812-0.4688 0.0312  plane waves:     216
 k-point 49 :  -0.4063-0.4063 0.0312  plane waves:     213
 k-point 50 :  -0.3438-0.4062 0.0312  plane waves:     215
 k-point 51 :  -0.3438-0.3438 0.0312  plane waves:     213
 k-point 52 :   0.0938 0.0938 0.0938  plane waves:     210
 k-point 53 :   0.1562 0.0938 0.0938  plane waves:     210
 k-point 54 :   0.2188 0.0938 0.0937  plane waves:     211
 k-point 55 :   0.2812 0.0938 0.0938  plane waves:     209
 k-point 56 :   0.3438 0.0938 0.0938  plane waves:     211
 k-point 57 :   0.4062 0.0938 0.0938  plane waves:     206
 k-point 58 :  -0.0938 0.0938 0.0938  plane waves:     213
 k-point 59 :   0.1563 0.1563 0.0937  plane waves:     214
 k-point 60 :   0.2188 0.1562 0.0937  plane waves:     211
[...]
 k-point 85 :  -0.4063-0.4063 0.0938  plane waves:     214
 k-point 86 :  -0.3438-0.4062 0.0938  plane waves:     217
 k-point 87 :   0.1563 0.1563 0.1563  plane waves:     210
 k-point 88 :   0.2188 0.1563 0.1563  plane waves:     210
 k-point 89 :   0.2812 0.1563 0.1562  plane waves:     214
 k-point 90 :   0.3438 0.1563 0.1562  plane waves:     214
 k-point 91 :  -0.1563 0.1563 0.1563  plane waves:     213
 k-point 92 :   0.2188 0.2188 0.1563  plane waves:     216
 k-point 93 :   0.2812 0.2188 0.1562  plane waves:     214
 k-point 94 :  -0.2188 0.2188 0.1563  plane waves:     212
 k-point 95 :   0.2812 0.2812 0.1562  plane waves:     216
 k-point 96 :  -0.2812 0.2812 0.1562  plane waves:     211
 k-point 97 :  -0.2188 0.2812 0.1562  plane waves:     214
 k-point 98 :  -0.3438 0.3438 0.1562  plane waves:     213
 k-point 99 :  -0.2812 0.3438 0.1562  plane waves:     215
 k-point ** :  -0.4063 0.4063 0.1563  plane waves:     215
 k-point ** :  -0.3438 0.4063 0.1563  plane waves:     215
 k-point ** :  -0.2813 0.4063 0.1563  plane waves:     217
 k-point ** :  -0.4688 0.4688 0.1563  plane waves:     209
 k-point ** :  -0.4063 0.4688 0.1563  plane waves:     214
 k-point ** :  -0.3438 0.4688 0.1563  plane waves:     216
 k-point ** :  -0.4688-0.4688 0.1562  plane waves:     212
 k-point ** :  -0.4062-0.4688 0.1562  plane waves:     212
 k-point ** :  -0.3438-0.4688 0.1563  plane waves:     213
 k-point ** :  -0.4063-0.4063 0.1563  plane waves:     212
 k-point ** :   0.2188 0.2188 0.2188  plane waves:     216
 k-point ** :   0.2812 0.2188 0.2188  plane waves:     216
 k-point ** :  -0.2188 0.2188 0.2188  plane waves:     209
 k-point ** :  -0.2812 0.2812 0.2188  plane waves:     209
 k-point ** :  -0.3438 0.3438 0.2188  plane waves:     217
 k-point ** :  -0.2813 0.3438 0.2188  plane waves:     213
 k-point ** :  -0.4063 0.4063 0.2188  plane waves:     215
 k-point ** :  -0.3438 0.4063 0.2188  plane waves:     215
 k-point ** :  -0.4688 0.4688 0.2188  plane waves:     214
 k-point ** :  -0.4062 0.4688 0.2188  plane waves:     214
 k-point ** :  -0.3438 0.4688 0.2188  plane waves:     216
 k-point ** :  -0.4688-0.4688 0.2188  plane waves:     214
 k-point ** :  -0.4063-0.4688 0.2188  plane waves:     215
 k-point ** :  -0.4063-0.4063 0.2188  plane waves:     218
 k-point ** :  -0.2812 0.2812 0.2812  plane waves:     209
 k-point ** :  -0.3438 0.3438 0.2813  plane waves:     215
 k-point ** :  -0.4062 0.4062 0.2812  plane waves:     216
 k-point ** :  -0.3438 0.4062 0.2812  plane waves:     218
 k-point ** :  -0.4688 0.4688 0.2812  plane waves:     218
 k-point ** :  -0.4062 0.4688 0.2812  plane waves:     219
 k-point ** :  -0.4688-0.4688 0.2812  plane waves:     218
 k-point ** :  -0.4063-0.4688 0.2812  plane waves:     218
 k-point ** :  -0.3438 0.3438 0.3438  plane waves:     220
 k-point ** :  -0.4062 0.4062 0.3438  plane waves:     218
 k-point ** :  -0.4688 0.4688 0.3438  plane waves:     220
 k-point ** :  -0.4063 0.4688 0.3438  plane waves:     222
 k-point ** :  -0.4688-0.4688 0.3438  plane waves:     222
 k-point ** :  -0.4063 0.4063 0.4063  plane waves:     220
 k-point ** :  -0.4688 0.4688 0.4063  plane waves:     224
 k-point ** :  -0.4688-0.4688 0.4063  plane waves:     230
 k-point ** :  -0.4688 0.4688 0.4688  plane waves:     236

 maximum and minimum number of plane-waves per node :       236      203

 maximum number of plane-waves:       236
 maximum index in each direction:
   IXMAX=    4   IYMAX=    4   IZMAX=    4
   IXMIN=   -4   IYMIN=   -4   IZMIN=   -4

 serial   3D FFT for wavefunctions
 parallel 3D FFT for charge:
    minimum data exchange during FFTs selected (reduces bandwidth)

 initial charge density was supplied:
 number of electron      10.9999986 magnetization
 keeping initial charge density in first step

 Maximum index for augmentation-charges          345 (set IRDMAX)

 First call to EWALD:  gamma=   0.677
 Maximum number of real-space cells 3x 3x 3
 Maximum number of reciprocal cells 3x 3x 3

--------------------------------------- Iteration      1(   1)  ---------------------------------------

 BZINTS: Fermi energy:  5.059138; 11.000000 electrons
         Band energy:-135.333198;  BLOECHL correction: -0.064942

 eigenvalue-minimisations  : 15120
 total energy-change (2. order) :-0.1004641E+02  (-0.5513724E+03)
 number of electron      10.9999986 magnetization
 augmentation part       10.9999986 magnetization

 Free energy of the ion-electron system (eV)
  alpha Z        PSCENC =       124.80261925
  Ewald energy   TEWEN  =      -960.51057943
  -Hartree energ DENC   =      -120.12100212
  -exchange      EXHF   =         0.00000000
  -V(xc)+E(xc)   XCENC  =        26.43668385
  PAW double counting   =      1498.93283437    -1490.61690634
  entropy T*S    EENTRO =         0.00000000
  eigenvalues    EBANDS =      -135.33319750
  atomic energy  EATOM  =      1046.36313925
  Solvation  Ediel_sol  =         0.00000000
  free energy    TOTEN  =       -10.04640867 eV

  energy without entropy =      -10.04640867  energy(sigma->0) =      -10.04640867

[...]

 eigenvalue-minimisations  : 18560
 total energy-change (2. order) :-0.2048637E-09  (-0.2700802E-12)
 number of electron      10.9999986 magnetization
 augmentation part       10.9999986 magnetization

[...]

--------------------------------------- Iteration      1(   6)  ---------------------------------------

 BZINTS: Fermi energy:  4.834441; 11.000000 electrons
         Band energy:-136.424590;  BLOECHL correction: -0.045932

 eigenvalue-minimisations  : 11080
 total energy-change (2. order) : 0.5504717E-09  ( 0.9834186E-13)
 number of electron      10.9999986 magnetization
 augmentation part       10.9999986 magnetization

 Free energy of the ion-electron system (eV)
  alpha Z        PSCENC =       124.80261925
  Ewald energy   TEWEN  =      -960.51057943
  -Hartree energ DENC   =      -120.12100212
  -exchange      EXHF   =         0.00000000
  -V(xc)+E(xc)   XCENC  =        26.43668385
  PAW double counting   =      1498.93283437    -1490.61690634
  entropy T*S    EENTRO =         0.00000000
  eigenvalues    EBANDS =      -136.42459010
  atomic energy  EATOM  =      1046.36313925
  Solvation  Ediel_sol  =         0.00000000
  free energy    TOTEN  =       -11.13780127 eV

  energy without entropy =      -11.13780127  energy(sigma->0) =      -11.13780127

 average (electrostatic) potential at core
  the test charge radii are     1.2165
  (the norm of the test charge is              1.0000)
       1 -34.9059

 E-fermi :   4.8344     XC(G=0): -12.6480     alpha+bet :-12.9149

 k-point     1 :       0.0312    0.0312    0.0312
  band No.  band energies     occupation
      1     -24.7847      2.00000
      2     -24.7010      2.00000
      3     -24.7010      2.00000
      4      -0.8452      2.00000
      5       5.0516     -0.13518
      6       5.0516     -0.00771
      7       5.4446      0.00000
      8       7.9804      0.00000
      9       7.9804      0.00000
     10      20.5656      0.00000
     11      20.8620      0.00000
     12      20.8620      0.00000
     13      29.4108      0.00000
     14      29.4108      0.00000
     15      32.8239      0.00000
     16      35.5946      0.00000
     17      35.5946      0.00000
     18      39.8147      0.00000
     19      40.8849      0.00000
     20      40.8849      0.00000
     21      41.9361      0.00000
     22      44.3574      0.00000
     23      53.7285      0.00000
     24      53.7285      0.00000
     25      54.1438      0.00000
     26      62.7908      0.00000
     27      62.7908      0.00000
     28      64.4835      0.00000
     29      67.4393      0.00000
     30      67.9767      0.00000
     31      67.9767      0.00000
     32      68.8982      0.00000
     33      70.4486      0.00000
     34      70.4486      0.00000
     35      71.4503      0.00000
     36      73.3835      0.00000
     37      73.3835      0.00000
     38      74.5255      0.00000
     39      75.5382      0.00000
     40      75.5382      0.00000

[...]

 k-point   140 :      -0.4688    0.4688    0.4688
  band No.  band energies     occupation
      1     -25.6391      2.00000
      2     -25.6285      2.00000
      3     -25.6285      2.00000
      4       1.1266      2.00000
      5       1.1535      2.00000
      6      10.1448      0.00000
      7      10.1448      0.00000
      8      10.3738      0.00000
      9      13.9831      0.00000
     10      14.6084      0.00000
     11      14.6084      0.00000
     12      23.5817      0.00000
     13      25.8439      0.00000
     14      25.8911      0.00000
     15      30.1703      0.00000
     16      41.5075      0.00000
     17      41.5075      0.00000
     18      41.6928      0.00000
     19      42.3896      0.00000
     20      45.8793      0.00000
     21      45.9042      0.00000
     22      45.9042      0.00000
     23      51.5821      0.00000
     24      54.1466      0.00000
     25      54.4974      0.00000
     26      54.4974      0.00000
     27      56.7698      0.00000
     28      56.7698      0.00000
     29      57.2949      0.00000
     30      59.3256      0.00000
     31      59.6539      0.00000
     32      60.4935      0.00000
     33      60.4935      0.00000
     34      61.4264      0.00000
     35      62.8698      0.00000
     36      63.7545      0.00000
     37      63.7545      0.00000
     38      66.4719      0.00000
     39      96.3195      0.00000
     40      96.3207      0.00000

 soft charge-density along one line, spin component           1
         0         1         2         3         4         5         6         7         8         9
 total charge-density along one line

------------------------ aborting loop because EDIFF is reached ----------------------------------------

  FORCE on cell =-STRESS in cart. coord.  units (eV):
  Direction    XX          YY          ZZ          XY          YZ          ZX
  Alpha Z   124.80262   124.80262   124.80262
  Ewald    -320.17018  -320.17018  -320.17018    -0.00000    -0.00000     0.00000
  Hartree    40.04427    40.04427    40.04427     0.00000     0.00000     0.00000
  E(xc)     -46.88484   -46.88484   -46.88484    -0.00000    -0.00000    -0.00000
  Local     102.78108   102.78108   102.78108    -0.00000    -0.00000    -0.00000
  n-local   -42.91930   -42.17940   -40.56781     3.35315    -2.37029    -2.97840
  augment    26.17648    26.17648    26.17648    -0.00000    -0.00000    -0.00000
  Kinetic   114.09836   112.54515   116.51120    -0.50679     1.00231     1.70771
  Fock        0.00000     0.00000     0.00000     0.00000     0.00000     0.00000
  Total      -0.75450    -0.75450    -0.75450     0.00000     0.00000     0.00000
  in kB     -67.22673   -67.22673   -67.22673     0.00000     0.00000     0.00000

 VOLUME and BASIS-vectors are now :
  energy-cutoff  :      300.00
  volume of cell :       17.98
      direct lattice vectors                 reciprocal lattice vectors
    -1.650400000  1.650400000  1.650400000     0.000000000  0.302956859  0.302956859
     1.650400000 -1.650400000  1.650400000     0.302956859  0.000000000  0.302956859
     1.650400000  1.650400000 -1.650400000     0.302956859  0.302956859  0.000000000

  length of vectors
     2.858576653  2.858576653  2.858576653     0.428445699  0.428445699  0.428445699

 FORCES acting on ions
    electron-ion (+dipol)            ewald-force                    non-local-force                 convergence-correction
   -.231E-14 0.755E-15 -.207E-15   0.544E-15 -.107E-14 -.107E-14   -.113E-25 0.969E-26 -.113E-25   0.645E-15 -.597E-14 -.330E-14
   -.231E-14 0.755E-15 -.207E-15   0.544E-15 -.107E-14 -.107E-14   -.113E-25 0.969E-26 -.113E-25   0.645E-15 -.597E-14 -.330E-14

 POSITION                                       TOTAL-FORCE (eV/Angst)
      0.00000      0.00000      0.00000        -0.000000      0.000000     -0.000000
    total drift:                               -0.000000     -0.000000     -0.000000

  FREE ENERGIE OF THE ION-ELECTRON SYSTEM (eV)
  free  energy   TOTEN  =       -11.13780127 eV

  energy  without entropy=      -11.13780127  energy(sigma->0) =      -11.13780127

 writing wavefunctions
 BZINTS: Fermi energy:  4.834441; 11.000000 electrons
         Band energy:-136.424590;  BLOECHL correction: -0.045932