 vasp.5.4.4.18Apr17-6-g9f103f2a35 (build May 20 2018 16:52:39) complex

 executed on             LinuxIFC date 2022.09.19  17:06:27

 INCAR:
 POTCAR:   PAW Au 04Feb1998
 POTCAR:   PAW Au 04Feb1998
   VRHFIN =Au: s1d10

   TITEL  = PAW Au 04Feb1998
   POMASS =  196.966; ZVAL   =   11.000    mass and valenz
   ENMAX  =  229.869; ENMIN  =  172.402 eV
   QCUT   =   -4.110; QGAM   =    8.221    optimization parameters

   Description
     l     E      TYP  RCUT    TYP  RCUT
     2   .000     23  2.500
     2   .000     23  2.500
     0   .000     23  2.500
     0   .000     23  2.500
     1  -.200     23  2.500
     1   .000     23  2.500
     3   .000      7   .000

 PAW Au 04Feb1998                       :

 POSCAR: Au bulk FCC
  positions in direct lattice
 exchange correlation table for  LEXCH =        2
   RHO(1)=    0.500       N(1)  =     2000
   RHO(2)=  100.500       N(2)  =     4000

 ion  position               nearest neighbor table
   1  0.000  0.000  0.000-

  LATTYP: Found a face centered cubic cell.
 ALAT       =     4.0800000000

  Lattice vectors:

 A1 = (   0.0000000000,   2.0400000000,   2.0400000000)
 A2 = (   2.0400000000,   0.0000000000,   2.0400000000)
 A3 = (   2.0400000000,   2.0400000000,   0.0000000000)

Analysis of symmetry for initial positions (statically):
 Subroutine PRICEL returns:
 Original cell was already a primitive cell.

 Routine SETGRP: Setting up the symmetry group for a
 face centered cubic supercell.

 Subroutine GETGRP returns: Found 48 space group operations
 (whereof 48 operations were pure point group operations)
 out of a pool of 48 trial point group operations.

The static configuration has the point symmetry O_h .

Analysis of symmetry for dynamics (positions and initial velocities):
 Subroutine PRICEL returns:
 Original cell was already a primitive cell.

 Routine SETGRP: Setting up the symmetry group for a
 face centered cubic supercell.

 Subroutine GETGRP returns: Found 48 space group operations
 (whereof 48 operations were pure point group operations)
 out of a pool of 48 trial point group operations.

The dynamic configuration has the point symmetry O_h .

 Subroutine INISYM returns: Found 48 space group operations
 (whereof 48 operations are pure point group operations),
 and found     1 'primitive' translations

 KPOINTS: 20x20x20

Automatic generation of k-mesh.
Space group operators:
 irot       det(A)        alpha          n_x          n_y          n_z        tau_x        tau_y        tau_z
    1     1.000000     0.000001     1.000000     0.000000     0.000000     0.000000     0.000000     0.000000
    2    -1.000000     0.000001     1.000000     0.000000     0.000000     0.000000     0.000000     0.000000
    3     1.000000   120.000000    -0.577350    -0.577350    -0.577350     0.000000     0.000000     0.000000
    4    -1.000000   120.000000    -0.577350    -0.577350    -0.577350     0.000000     0.000000     0.000000
    5     1.000000   120.000000     0.577350     0.577350     0.577350     0.000000     0.000000     0.000000
    6    -1.000000   120.000000     0.577350     0.577350     0.577350     0.000000     0.000000     0.000000
    7     1.000000    90.000000     0.000000     0.000000    -1.000000     0.000000     0.000000     0.000000
    8    -1.000000    90.000000     0.000000     0.000000    -1.000000     0.000000     0.000000     0.000000
    9     1.000000   180.000000     0.000000     0.707107     0.707107     0.000000     0.000000     0.000000
   10    -1.000000   180.000000     0.000000     0.707107     0.707107     0.000000     0.000000     0.000000
   11     1.000000    90.000000     0.000000     1.000000     0.000000     0.000000     0.000000     0.000000
   12    -1.000000    90.000000     0.000000     1.000000     0.000000     0.000000     0.000000     0.000000
   13     1.000000   180.000000     0.000000     0.000000     1.000000     0.000000     0.000000     0.000000
   14    -1.000000   180.000000     0.000000     0.000000     1.000000     0.000000     0.000000     0.000000
   15     1.000000   120.000000    -0.577350     0.577350     0.577350     0.000000     0.000000     0.000000
   16    -1.000000   120.000000    -0.577350     0.577350     0.577350     0.000000     0.000000     0.000000
   17     1.000000   120.000000    -0.577350     0.577350    -0.577350     0.000000     0.000000     0.000000
   18    -1.000000   120.000000    -0.577350     0.577350    -0.577350     0.000000     0.000000     0.000000
   19     1.000000    90.000000     0.000000     0.000000     1.000000     0.000000     0.000000     0.000000
   20    -1.000000    90.000000     0.000000     0.000000     1.000000     0.000000     0.000000     0.000000
   21     1.000000    90.000000    -1.000000     0.000000     0.000000     0.000000     0.000000     0.000000
   22    -1.000000    90.000000    -1.000000     0.000000     0.000000     0.000000     0.000000     0.000000
   23     1.000000   180.000000     0.707107     0.000000     0.707107     0.000000     0.000000     0.000000
   24    -1.000000   180.000000     0.707107     0.000000     0.707107     0.000000     0.000000     0.000000
   25     1.000000   120.000000     0.577350    -0.577350     0.577350     0.000000     0.000000     0.000000
   26    -1.000000   120.000000     0.577350    -0.577350     0.577350     0.000000     0.000000     0.000000
   27     1.000000   120.000000    -0.577350    -0.577350     0.577350     0.000000     0.000000     0.000000
   28    -1.000000   120.000000    -0.577350    -0.577350     0.577350     0.000000     0.000000     0.000000
   29     1.000000   180.000000     1.000000     0.000000     0.000000     0.000000     0.000000     0.000000
   30    -1.000000   180.000000     1.000000     0.000000     0.000000     0.000000     0.000000     0.000000
   31     1.000000    90.000000     0.000000    -1.000000     0.000000     0.000000     0.000000     0.000000
   32    -1.000000    90.000000     0.000000    -1.000000     0.000000     0.000000     0.000000     0.000000
   33     1.000000   180.000000     0.707107     0.707107     0.000000     0.000000     0.000000     0.000000
   34    -1.000000   180.000000     0.707107     0.707107     0.000000     0.000000     0.000000     0.000000
   35     1.000000    90.000000     1.000000     0.000000     0.000000     0.000000     0.000000     0.000000
   36    -1.000000    90.000000     1.000000     0.000000     0.000000     0.000000     0.000000     0.000000
   37     1.000000   120.000000     0.577350    -0.577350    -0.577350     0.000000     0.000000     0.000000
   38    -1.000000   120.000000     0.577350    -0.577350    -0.577350     0.000000     0.000000     0.000000
   39     1.000000   180.000000     0.000000     1.000000     0.000000     0.000000     0.000000     0.000000
   40    -1.000000   180.000000     0.000000     1.000000     0.000000     0.000000     0.000000     0.000000
   41     1.000000   120.000000     0.577350     0.577350    -0.577350     0.000000     0.000000     0.000000
   42    -1.000000   120.000000     0.577350     0.577350    -0.577350     0.000000     0.000000     0.000000
   43     1.000000   180.000000     0.000000    -0.707107     0.707107     0.000000     0.000000     0.000000
   44    -1.000000   180.000000     0.000000    -0.707107     0.707107     0.000000     0.000000     0.000000
   45     1.000000   180.000000     0.707107    -0.707107     0.000000     0.000000     0.000000     0.000000
   46    -1.000000   180.000000     0.707107    -0.707107     0.000000     0.000000     0.000000     0.000000
   47     1.000000   180.000000     0.707107     0.000000    -0.707107     0.000000     0.000000     0.000000
   48    -1.000000   180.000000     0.707107     0.000000    -0.707107     0.000000     0.000000     0.000000

 Subroutine IBZKPT returns following result:

 Found    770 irreducible k-points:

 Following reciprocal coordinates:
            Coordinates               Weight
  0.025000  0.025000  0.025000     96.000000
  0.075000  0.025000  0.025000    288.000000
  0.125000  0.025000  0.025000    288.000000
  0.175000  0.025000  0.025000    288.000000
  0.225000  0.025000  0.025000    288.000000
  0.275000  0.025000  0.025000    288.000000
  0.325000  0.025000  0.025000    288.000000
  0.375000  0.025000  0.025000    288.000000
  0.425000  0.025000  0.025000    288.000000
  0.475000  0.025000  0.025000    288.000000
 -0.475000  0.025000  0.025000    288.000000
 -0.425000  0.025000  0.025000    288.000000
 -0.375000  0.025000  0.025000    288.000000
 -0.325000  0.025000  0.025000    288.000000
 -0.275000  0.025000  0.025000    288.000000
 -0.225000  0.025000  0.025000    288.000000
 -0.175000  0.025000  0.025000    288.000000
 -0.125000  0.025000  0.025000    288.000000
 -0.075000  0.025000  0.025000    288.000000
 -0.025000  0.025000  0.025000    288.000000
  0.075000  0.075000  0.025000    288.000000
  0.125000  0.075000  0.025000    576.000000
  0.175000  0.075000  0.025000    576.000000
  0.225000  0.075000  0.025000    576.000000
  0.275000  0.075000  0.025000    576.000000
  0.325000  0.075000  0.025000    576.000000
  0.375000  0.075000  0.025000    576.000000
  0.425000  0.075000  0.025000    576.000000
  0.475000  0.075000  0.025000    576.000000
 -0.475000  0.075000  0.025000    576.000000
 -0.425000  0.075000  0.025000    576.000000
 -0.375000  0.075000  0.025000    576.000000
 -0.325000  0.075000  0.025000    576.000000
 -0.275000  0.075000  0.025000    576.000000
 -0.225000  0.075000  0.025000    576.000000
 -0.175000  0.075000  0.025000    576.000000
 -0.125000  0.075000  0.025000    576.000000
 -0.075000  0.075000  0.025000    576.000000
 -0.025000  0.075000  0.025000    576.000000
  0.125000  0.125000  0.025000    288.000000
  0.175000  0.125000  0.025000    576.000000
  0.225000  0.125000  0.025000    576.000000
  0.275000  0.125000  0.025000    576.000000
  0.325000  0.125000  0.025000    576.000000
  0.375000  0.125000  0.025000    576.000000
  0.425000  0.125000  0.025000    576.000000
  0.475000  0.125000  0.025000    576.000000
 -0.475000  0.125000  0.025000    576.000000
 -0.425000  0.125000  0.025000    576.000000
 -0.375000  0.125000  0.025000    576.000000
 -0.325000  0.125000  0.025000    576.000000
 -0.275000  0.125000  0.025000    576.000000
 -0.225000  0.125000  0.025000    576.000000
 -0.175000  0.125000  0.025000    576.000000
 -0.125000  0.125000  0.025000    576.000000
 -0.075000  0.125000  0.025000    576.000000
 -0.025000  0.125000  0.025000    576.000000
  0.175000  0.175000  0.025000    288.000000
  0.225000  0.175000  0.025000    576.000000
  0.275000  0.175000  0.025000    576.000000
[...]
 -0.425000  0.475000  0.375000    576.000000
 -0.375000  0.475000  0.375000    576.000000
 -0.475000 -0.475000  0.375000    288.000000
 -0.425000 -0.475000  0.375000    576.000000
 -0.425000 -0.425000  0.375000    288.000000
  0.425000  0.425000  0.425000     96.000000
  0.475000  0.425000  0.425000    288.000000
 -0.475000  0.425000  0.425000    288.000000
 -0.425000  0.425000  0.425000    288.000000
  0.475000  0.475000  0.425000    288.000000
 -0.475000  0.475000  0.425000    576.000000
 -0.425000  0.475000  0.425000    576.000000
[...]
[...]
  -0.42500000  0.47500000  0.37500000       0.002
  -0.37500000  0.47500000  0.37500000       0.002
  -0.47500000 -0.47500000  0.37500000       0.001
  -0.42500000 -0.47500000  0.37500000       0.002
  -0.42500000 -0.42500000  0.37500000       0.001
   0.42500000  0.42500000  0.42500000       0.000
   0.47500000  0.42500000  0.42500000       0.001
  -0.47500000  0.42500000  0.42500000       0.001
  -0.42500000  0.42500000  0.42500000       0.001
   0.47500000  0.47500000  0.42500000       0.001
  -0.47500000  0.47500000  0.42500000       0.002
  -0.42500000  0.47500000  0.42500000       0.002
  -0.47500000 -0.47500000  0.42500000       0.001
   0.47500000  0.47500000  0.47500000       0.000
  -0.47500000  0.47500000  0.47500000       0.001

 position of ions in fractional coordinates (direct lattice)
   0.00000000  0.00000000  0.00000000

 position of ions in cartesian coordinates  (Angst):
   0.00000000  0.00000000  0.00000000

 k-point  1 :   0.0250 0.0250 0.0250  plane waves:     137
 k-point  2 :   0.0750 0.0250 0.0250  plane waves:     137
 k-point  3 :   0.1250 0.0250 0.0250  plane waves:     137
 k-point  4 :   0.1750 0.0250 0.0250  plane waves:     140
 k-point  5 :   0.2250 0.0250 0.0250  plane waves:     138
 k-point  6 :   0.2750 0.0250 0.0250  plane waves:     139
 k-point  7 :   0.3250 0.0250 0.0250  plane waves:     141
 k-point  8 :   0.3750 0.0250 0.0250  plane waves:     143
 k-point  9 :   0.4250 0.0250 0.0250  plane waves:     141
 k-point 10 :   0.4750 0.0250 0.0250  plane waves:     138
 k-point 11 :  -0.4750 0.0250 0.0250  plane waves:     138
 k-point 12 :  -0.4250 0.0250 0.0250  plane waves:     137
 k-point 13 :  -0.3750 0.0250 0.0250  plane waves:     143
 k-point 14 :  -0.3250 0.0250 0.0250  plane waves:     141
 k-point 15 :  -0.2750 0.0250 0.0250  plane waves:     141
 k-point 16 :  -0.2250 0.0250 0.0250  plane waves:     139
 k-point 17 :  -0.1750 0.0250 0.0250  plane waves:     138
 k-point 18 :  -0.1250 0.0250 0.0250  plane waves:     138
 k-point 19 :  -0.0750 0.0250 0.0250  plane waves:     137
 k-point 20 :  -0.0250 0.0250 0.0250  plane waves:     137
 k-point 21 :   0.0750 0.0750 0.0250  plane waves:     137
 k-point 22 :   0.1250 0.0750 0.0250  plane waves:     139
 k-point 23 :   0.1750 0.0750 0.0250  plane waves:     138
 k-point 24 :   0.2250 0.0750 0.0250  plane waves:     139
 k-point 25 :   0.2750 0.0750 0.0250  plane waves:     141
 k-point 26 :   0.3250 0.0750 0.0250  plane waves:     141
 k-point 27 :   0.3750 0.0750 0.0250  plane waves:     141
 k-point 28 :   0.4250 0.0750 0.0250  plane waves:     139
 k-point 29 :   0.4750 0.0750 0.0250  plane waves:     135
 k-point 30 :  -0.4750 0.0750 0.0250  plane waves:     133
 k-point 31 :  -0.4250 0.0750 0.0250  plane waves:     132
 k-point 32 :  -0.3750 0.0750 0.0250  plane waves:     138
 k-point 33 :  -0.3250 0.0750 0.0250  plane waves:     141
 k-point 34 :  -0.2750 0.0750 0.0250  plane waves:     141
 k-point 35 :  -0.2250 0.0750 0.0250  plane waves:     140
 k-point 36 :  -0.1750 0.0750 0.0250  plane waves:     141
 k-point 37 :  -0.1250 0.0750 0.0250  plane waves:     139
 k-point 38 :  -0.0750 0.0750 0.0250  plane waves:     137
 k-point 39 :  -0.0250 0.0750 0.0250  plane waves:     137
 k-point 40 :   0.1250 0.1250 0.0250  plane waves:     138
 k-point 41 :   0.1750 0.1250 0.0250  plane waves:     136
 k-point 42 :   0.2250 0.1250 0.0250  plane waves:     137
 k-point 43 :   0.2750 0.1250 0.0250  plane waves:     139
 k-point 44 :   0.3250 0.1250 0.0250  plane waves:     139
 k-point 45 :   0.3750 0.1250 0.0250  plane waves:     139
 k-point 46 :   0.4250 0.1250 0.0250  plane waves:     137
 k-point 47 :   0.4750 0.1250 0.0250  plane waves:     135
 k-point 48 :  -0.4750 0.1250 0.0250  plane waves:     133
 k-point 49 :  -0.4250 0.1250 0.0250  plane waves:     131
 k-point 50 :  -0.3750 0.1250 0.0250  plane waves:     135
 k-point 51 :  -0.3250 0.1250 0.0250  plane waves:     138
 k-point 52 :  -0.2750 0.1250 0.0250  plane waves:     137
 k-point 53 :  -0.2250 0.1250 0.0250  plane waves:     138
 k-point 54 :  -0.1750 0.1250 0.0250  plane waves:     141
 k-point 55 :  -0.1250 0.1250 0.0250  plane waves:     139
 k-point 56 :  -0.0750 0.1250 0.0250  plane waves:     139
 k-point 57 :  -0.0250 0.1250 0.0250  plane waves:     137
 k-point 58 :   0.1750 0.1750 0.0250  plane waves:     136
 k-point 59 :   0.2250 0.1750 0.0250  plane waves:     135
 k-point 60 :   0.2750 0.1750 0.0250  plane waves:     138
[...]
 k-point 85 :  -0.2750 0.2250 0.0250  plane waves:     136
 k-point 86 :  -0.2250 0.2250 0.0250  plane waves:     137
 k-point 87 :  -0.1750 0.2250 0.0250  plane waves:     137
 k-point 88 :  -0.1250 0.2250 0.0250  plane waves:     139
 k-point 89 :  -0.0750 0.2250 0.0250  plane waves:     140
 k-point 90 :  -0.0250 0.2250 0.0250  plane waves:     140
 k-point 91 :   0.2750 0.2750 0.0250  plane waves:     133
 k-point 92 :   0.3250 0.2750 0.0250  plane waves:     134
 k-point 93 :   0.3750 0.2750 0.0250  plane waves:     134
 k-point 94 :   0.4250 0.2750 0.0250  plane waves:     136
 k-point 95 :   0.4750 0.2750 0.0250  plane waves:     134
 k-point 96 :  -0.4750 0.2750 0.0250  plane waves:     131
 k-point 97 :  -0.4250 0.2750 0.0250  plane waves:     132
 k-point 98 :  -0.3750 0.2750 0.0250  plane waves:     130
 k-point 99 :  -0.3250 0.2750 0.0250  plane waves:     132
 k-point ** :  -0.2750 0.2750 0.0250  plane waves:     135
 k-point ** :  -0.2250 0.2750 0.0250  plane waves:     135
 k-point ** :  -0.1750 0.2750 0.0250  plane waves:     137
 k-point ** :  -0.1250 0.2750 0.0250  plane waves:     138
 k-point ** :  -0.0750 0.2750 0.0250  plane waves:     139
 k-point ** :  -0.0250 0.2750 0.0250  plane waves:     140
 k-point ** :   0.3250 0.3250 0.0250  plane waves:     131
 k-point ** :   0.3750 0.3250 0.0250  plane waves:     131
 k-point ** :   0.4250 0.3250 0.0250  plane waves:     132
 k-point ** :   0.4750 0.3250 0.0250  plane waves:     133
 k-point ** :  -0.4750 0.3250 0.0250  plane waves:     130
 k-point ** :  -0.4250 0.3250 0.0250  plane waves:     131
 k-point ** :  -0.3750 0.3250 0.0250  plane waves:     132
 k-point ** :  -0.3250 0.3250 0.0250  plane waves:     133
 k-point ** :  -0.2750 0.3250 0.0250  plane waves:     133
 k-point ** :  -0.2250 0.3250 0.0250  plane waves:     134
 k-point ** :  -0.1750 0.3250 0.0250  plane waves:     135
 k-point ** :  -0.1250 0.3250 0.0250  plane waves:     136
 k-point ** :  -0.0750 0.3250 0.0250  plane waves:     140
 k-point ** :  -0.0250 0.3250 0.0250  plane waves:     142
 k-point ** :   0.3750 0.3750 0.0250  plane waves:     129
 k-point ** :   0.4250 0.3750 0.0250  plane waves:     131
 k-point ** :   0.4750 0.3750 0.0250  plane waves:     132
 k-point ** :  -0.4750 0.3750 0.0250  plane waves:     130
 k-point ** :  -0.4250 0.3750 0.0250  plane waves:     131
 k-point ** :  -0.3750 0.3750 0.0250  plane waves:     133
 k-point ** :  -0.3250 0.3750 0.0250  plane waves:     133
 k-point ** :  -0.2750 0.3750 0.0250  plane waves:     131
 k-point ** :  -0.2250 0.3750 0.0250  plane waves:     131
 k-point ** :  -0.1750 0.3750 0.0250  plane waves:     131
 k-point ** :  -0.1250 0.3750 0.0250  plane waves:     136
 k-point ** :  -0.0750 0.3750 0.0250  plane waves:     138
 k-point ** :  -0.0250 0.3750 0.0250  plane waves:     142
 k-point ** :   0.4250 0.4250 0.0250  plane waves:     129
 k-point ** :   0.4750 0.4250 0.0250  plane waves:     131
 k-point ** :  -0.4750 0.4250 0.0250  plane waves:     129
 k-point ** :  -0.4250 0.4250 0.0250  plane waves:     131
 k-point ** :  -0.3750 0.4250 0.0250  plane waves:     133
 k-point ** :  -0.3250 0.4250 0.0250  plane waves:     131
 k-point ** :  -0.2750 0.4250 0.0250  plane waves:     132
 k-point ** :  -0.2250 0.4250 0.0250  plane waves:     130
 k-point ** :  -0.1750 0.4250 0.0250  plane waves:     130
 k-point ** :  -0.1250 0.4250 0.0250  plane waves:     131
 k-point ** :  -0.0750 0.4250 0.0250  plane waves:     134
 k-point ** :  -0.0250 0.4250 0.0250  plane waves:     136
 k-point ** :   0.4750 0.4750 0.0250  plane waves:     127
 k-point ** :  -0.4750 0.4750 0.0250  plane waves:     128
 k-point ** :  -0.4250 0.4750 0.0250  plane waves:     129
 k-point ** :  -0.3750 0.4750 0.0250  plane waves:     130
 k-point ** :  -0.3250 0.4750 0.0250  plane waves:     130
 k-point ** :  -0.2750 0.4750 0.0250  plane waves:     130
 k-point ** :  -0.2250 0.4750 0.0250  plane waves:     131
 k-point ** :  -0.1750 0.4750 0.0250  plane waves:     133
 k-point ** :  -0.1250 0.4750 0.0250  plane waves:     130
 k-point ** :  -0.0750 0.4750 0.0250  plane waves:     132
 k-point ** :  -0.0250 0.4750 0.0250  plane waves:     137
 k-point ** :  -0.4750-0.4750 0.0250  plane waves:     126
 k-point ** :  -0.4250-0.4750 0.0250  plane waves:     130
 k-point ** :  -0.3750-0.4750 0.0250  plane waves:     131
 k-point ** :  -0.3250-0.4750 0.0250  plane waves:     132
[...]
 k-point ** :  -0.4250 0.4750 0.3750  plane waves:     133
 k-point ** :  -0.3750 0.4750 0.3750  plane waves:     132
 k-point ** :  -0.4750-0.4750 0.3750  plane waves:     133
 k-point ** :  -0.4250-0.4750 0.3750  plane waves:     132
 k-point ** :  -0.4250-0.4250 0.3750  plane waves:     131
 k-point ** :   0.4250 0.4250 0.4250  plane waves:     135
 k-point ** :   0.4750 0.4250 0.4250  plane waves:     135
 k-point ** :  -0.4750 0.4250 0.4250  plane waves:     132
 k-point ** :  -0.4250 0.4250 0.4250  plane waves:     131
 k-point ** :   0.4750 0.4750 0.4250  plane waves:     136
 k-point ** :  -0.4750 0.4750 0.4250  plane waves:     133
 k-point ** :  -0.4250 0.4750 0.4250  plane waves:     132
 k-point ** :  -0.4750-0.4750 0.4250  plane waves:     131
 k-point ** :   0.4750 0.4750 0.4750  plane waves:     138
 k-point ** :  -0.4750 0.4750 0.4750  plane waves:     136

 maximum and minimum number of plane-waves per node :       144      126

 maximum number of plane-waves:       144
 maximum index in each direction:
   IXMAX=    4   IYMAX=    4   IZMAX=    3
   IXMIN=   -4   IYMIN=   -4   IZMIN=   -4

 serial   3D FFT for wavefunctions
 parallel 3D FFT for charge:
    minimum data exchange during FFTs selected (reduces bandwidth)

 initial charge density was supplied:
 number of electron      11.0000055 magnetization
 keeping initial charge density in first step

 Maximum index for augmentation-charges         6051 (set IRDMAX)

 First call to EWALD:  gamma=   0.690
 Maximum number of real-space cells 3x 3x 3
 Maximum number of reciprocal cells 3x 3x 3

--------------------------------------- Iteration      1(   1)  ---------------------------------------

 BZINTS: Fermi energy:  9.931192; 11.000000 electrons
         Band energy:  43.612157;  BLOECHL correction: -0.537765

 eigenvalue-minimisations  : 17682
 total energy-change (2. order) : 0.2461883E+02  (-0.3776887E+03)
 number of electron      11.0000055 magnetization
 augmentation part       11.0000055 magnetization

 Free energy of the ion-electron system (eV)
  alpha Z        PSCENC =       108.24217189
  Ewald energy   TEWEN  =      -978.98843183
  -Hartree energ DENC   =      -111.24555766
  -exchange      EXHF   =         0.00000000
  -V(xc)+E(xc)   XCENC  =        15.74155775
  PAW double counting   =       752.42945069     -734.56866697
  entropy T*S    EENTRO =         0.00000000
  eigenvalues    EBANDS =        43.61215746
  atomic energy  EATOM  =       929.39614979
  Solvation  Ediel_sol  =         0.00000000
  free energy    TOTEN  =        24.61883112 eV

  energy without entropy =       24.61883112  energy(sigma->0) =       24.61883112

[...]

 eigenvalue-minimisations  : 14163
 total energy-change (2. order) :-0.2877100E+02  (-0.2680083E+02)
 number of electron      11.0000055 magnetization
 augmentation part       11.0000055 magnetization

[...]

--------------------------------------- Iteration      1(   6)  ---------------------------------------

[...]

 eigenvalue-minimisations  :  9904
 total energy-change (2. order) :-0.1009239E-06  (-0.1006913E-06)
 number of electron      11.0000055 magnetization
 augmentation part       11.0000055 magnetization

 Free energy of the ion-electron system (eV)
  alpha Z        PSCENC =       108.24217189
  Ewald energy   TEWEN  =      -978.98843183
  -Hartree energ DENC   =      -111.24555766
  -exchange      EXHF   =         0.00000000
  -V(xc)+E(xc)   XCENC  =        15.74155775
  PAW double counting   =       752.42945069     -734.56866697
  entropy T*S    EENTRO =         0.00000000
  eigenvalues    EBANDS =        14.60392715
  atomic energy  EATOM  =       929.39614979
  Solvation  Ediel_sol  =         0.00000000
  free energy    TOTEN  =        -4.38939919 eV

  energy without entropy =       -4.38939919  energy(sigma->0) =       -4.38939919

 average (electrostatic) potential at core
  the test charge radii are     1.2098
  (the norm of the test charge is              1.0000)
       1 -45.7806

 E-fermi :   5.6258     XC(G=0): -13.0052     alpha+bet :-10.3291

 k-point     1 :       0.0250    0.0250    0.0250
  band No.  band energies     occupation
      1      -4.3502      2.00000
      2       0.8689      2.00000
      3       0.8843      2.00000
      4       0.8843      2.00000
      5       2.4125      2.00000
      6       2.4125      2.00000
      7      20.9499      0.00000
      8      24.5973      0.00000
      9      24.8087      0.00000

[...]

 k-point   770 :      -0.4750    0.4750    0.4750
  band No.  band energies     occupation
      1      -1.7280      2.00000
      2       0.7956      2.00000
      3       0.8847      2.00000
      4       3.2018      2.00000
      5       3.6172      2.00000
      6       5.0675      2.04061
      7       8.6903      0.00000
      8      20.2841      0.00000
      9      22.6894      0.00000

 soft charge-density along one line, spin component           1
         0         1         2         3         4         5         6         7         8         9
 total charge-density along one line

------------------------ aborting loop because EDIFF is reached ----------------------------------------

 total charge

# of ion       s       p       d       tot
    1        0.548   0.376   8.723   9.647

  FORCE on cell =-STRESS in cart. coord.  units (eV):
  Direction    XX          YY          ZZ          XY          YZ          ZX
  Alpha Z   108.24217   108.24217   108.24217
  Ewald    -326.32949  -326.32949  -326.32949     0.00000     0.00000     0.00000
  Hartree    37.02624    37.02624    37.02624    -0.00000    -0.00000    -0.00000
  E(xc)     -49.05919   -49.05919   -49.05919     0.00001     0.00001     0.00001
  Local      82.21003    82.21003    82.21003     0.00014     0.00014     0.00014
  n-local   -49.69503   -46.49930   -50.00626     0.79331    -0.84189    -0.00097
  augment    42.42253    42.42253    42.42253    -0.00002    -0.00002    -0.00002
  Kinetic   153.12864   152.28358   154.79918    -0.22930     0.17588    -0.00681
  Fock        0.00000     0.00000     0.00000     0.00000     0.00000     0.00000
  Total      -0.81744    -0.81744    -0.81744    -0.00000    -0.00000     0.00000
  in kB     -77.13355   -77.13355   -77.13355    -0.00000    -0.00000     0.00000

 VOLUME and BASIS-vectors are now :
  energy-cutoff  :      229.87
  volume of cell :       16.98
      direct lattice vectors                 reciprocal lattice vectors
     0.000000000  2.040000000  2.040000000    -0.245098039  0.245098039  0.245098039
     2.040000000  0.000000000  2.040000000     0.245098039 -0.245098039  0.245098039
     2.040000000  2.040000000  0.000000000     0.245098039  0.245098039 -0.245098039

  length of vectors
     2.884995667  2.884995667  2.884995667     0.424522257  0.424522257  0.424522257

 FORCES acting on ions
    electron-ion (+dipol)            ewald-force                    non-local-force                 convergence-correction
   0.101E-14 -.166E-15 -.115E-15   -.208E-15 0.128E-14 0.450E-14   0.000E+00 0.000E+00 0.000E+00   0.181E-14 -.643E-14 -.268E-14
   0.101E-14 -.166E-15 -.115E-15   -.208E-15 0.128E-14 0.450E-14   0.000E+00 0.000E+00 0.000E+00   0.181E-14 -.643E-14 -.268E-14

 POSITION                                       TOTAL-FORCE (eV/Angst)
      0.00000      0.00000      0.00000        -0.000000      0.000000      0.000000
    total drift:                                0.000000     -0.000000      0.000000

  FREE ENERGIE OF THE ION-ELECTRON SYSTEM (eV)
  free  energy   TOTEN  =        -4.38939919 eV

  energy  without entropy=       -4.38939919  energy(sigma->0) =       -4.38939919

 total charge

# of ion       s       p       d       tot
    1        0.548   0.376   8.723   9.647

 BZINTS: Fermi energy:  5.625783; 11.000000 electrons
         Band energy:  14.603927;  BLOECHL correction: -0.011156