 vasp.5.3.5 31Mar14 (build Dec 14 2018 19:18:10) complex

 INCAR:
 POTCAR:   PAW_PBE W 08Apr2002
 POTCAR:   PAW_PBE W 08Apr2002
   VRHFIN =W : 6s5d

   TITEL  = PAW_PBE W 08Apr2002
   POMASS =  183.850; ZVAL   =    6.000    mass and valenz
   ENMAX  =  223.057; ENMIN  =  167.293 eV
   QCUT   =   -4.049; QGAM   =    8.098    optimization parameters

   Description
     l     E      TYP  RCUT    TYP  RCUT
     2   .000     23  2.500
     2   .000     23  2.500
     0   .000     23  2.500
     0   .000     23  2.500
     1   .200     23  2.750
     1  2.000     23  2.750
     3   .000      7   .000

 PAW_PBE W 08Apr2002                    :

 POSCAR: W bulk bcc
  positions in direct lattice
  velocities in cartesian coordinates
 exchange correlation table for  LEXCH =        8
   RHO(1)=    0.500       N(1)  =     2000
   RHO(2)=  100.500       N(2)  =     4000

 ion  position               nearest neighbor table
   1  0.000  0.000  0.000-

  LATTYP: Found a body centered cubic cell.
 ALAT       =     3.1652000000

  Lattice vectors:

 A1 = (  -1.5826000000,   1.5826000000,   1.5826000000)
 A2 = (   1.5826000000,  -1.5826000000,   1.5826000000)
 A3 = (   1.5826000000,   1.5826000000,  -1.5826000000)

Analysis of symmetry for initial positions (statically):
 Subroutine PRICEL returns:
 Original cell was already a primitive cell.

 Routine SETGRP: Setting up the symmetry group for a
 body centered cubic supercell.

 Subroutine GETGRP returns: Found 48 space group operations
 (whereof 48 operations were pure point group operations)
 out of a pool of 48 trial point group operations.

The static configuration has the point symmetry O_h .

Analysis of symmetry for dynamics (positions and initial velocities):
 Subroutine PRICEL returns:
 Original cell was already a primitive cell.

[...]

The dynamic configuration has the point symmetry O_h .

Analysis of structural, dynamic, and magnetic symmetry:
 Subroutine PRICEL returns:
 Original cell was already a primitive cell.

 Routine SETGRP: Setting up the symmetry group for a
 body centered cubic supercell.

 Subroutine GETGRP returns: Found  6 space group operations
 (whereof  6 operations were pure point group operations)
 out of a pool of 48 trial point group operations.

The (compounded) configuration has the point symmetry S_6 .

 KPOINTS: 20x20x20

Automatic generation of k-mesh.
Space group operators:
 irot       det(A)        alpha          n_x          n_y          n_z        tau_x        tau_y        tau_z
    1     1.000000     0.000000     1.000000     0.000000     0.000000     0.000000     0.000000     0.000000
    2    -1.000000     0.000000     1.000000     0.000000     0.000000     0.000000     0.000000     0.000000
    3     1.000000   120.000000    -0.577350    -0.577350    -0.577350     0.000000     0.000000     0.000000
    4    -1.000000   120.000000    -0.577350    -0.577350    -0.577350     0.000000     0.000000     0.000000
    5     1.000000   120.000000     0.577350     0.577350     0.577350     0.000000     0.000000     0.000000
    6    -1.000000   120.000000     0.577350     0.577350     0.577350     0.000000     0.000000     0.000000

 Subroutine IBZKPT returns following result:

 Found   1340 irreducible k-points:

 Following reciprocal coordinates:
            Coordinates               Weight
  0.025000  0.025000  0.025000      2.000000
  0.075000  0.025000  0.025000      6.000000
  0.125000  0.025000  0.025000      6.000000
  0.175000  0.025000  0.025000      6.000000
  0.225000  0.025000  0.025000      6.000000
  0.275000  0.025000  0.025000      6.000000
  0.325000  0.025000  0.025000      6.000000
  0.375000  0.025000  0.025000      6.000000
  0.425000  0.025000  0.025000      6.000000
  0.475000  0.025000  0.025000      6.000000
 -0.475000  0.025000  0.025000      6.000000
 -0.425000  0.025000  0.025000      6.000000
 -0.375000  0.025000  0.025000      6.000000
 -0.325000  0.025000  0.025000      6.000000
 -0.275000  0.025000  0.025000      6.000000
 -0.225000  0.025000  0.025000      6.000000
 -0.175000  0.025000  0.025000      6.000000
 -0.125000  0.025000  0.025000      6.000000
 -0.075000  0.025000  0.025000      6.000000
 -0.025000  0.025000  0.025000      6.000000
  0.075000  0.075000  0.025000      6.000000
  0.125000  0.075000  0.025000      6.000000
  0.175000  0.075000  0.025000      6.000000
  0.225000  0.075000  0.025000      6.000000
  0.275000  0.075000  0.025000      6.000000
  0.325000  0.075000  0.025000      6.000000
  0.375000  0.075000  0.025000      6.000000
  0.425000  0.075000  0.025000      6.000000
  0.475000  0.075000  0.025000      6.000000
 -0.475000  0.075000  0.025000      6.000000
 -0.425000  0.075000  0.025000      6.000000
 -0.375000  0.075000  0.025000      6.000000
 -0.325000  0.075000  0.025000      6.000000
 -0.275000  0.075000  0.025000      6.000000
 -0.225000  0.075000  0.025000      6.000000
 -0.175000  0.075000  0.025000      6.000000
 -0.125000  0.075000  0.025000      6.000000
 -0.075000  0.075000  0.025000      6.000000
 -0.025000  0.075000  0.025000      6.000000
  0.075000  0.125000  0.025000      6.000000
  0.125000  0.125000  0.025000      6.000000
  0.175000  0.125000  0.025000      6.000000
  0.225000  0.125000  0.025000      6.000000
  0.275000  0.125000  0.025000      6.000000
  0.325000  0.125000  0.025000      6.000000
  0.375000  0.125000  0.025000      6.000000
  0.425000  0.125000  0.025000      6.000000
  0.475000  0.125000  0.025000      6.000000
 -0.475000  0.125000  0.025000      6.000000
 -0.425000  0.125000  0.025000      6.000000
 -0.375000  0.125000  0.025000      6.000000
 -0.325000  0.125000  0.025000      6.000000
 -0.275000  0.125000  0.025000      6.000000
 -0.225000  0.125000  0.025000      6.000000
 -0.175000  0.125000  0.025000      6.000000
 -0.125000  0.125000  0.025000      6.000000
 -0.075000  0.125000  0.025000      6.000000
 -0.025000  0.125000  0.025000      6.000000
  0.075000  0.175000  0.025000      6.000000
  0.125000  0.175000  0.025000      6.000000
[...]
 -0.475000 -0.425000  0.375000      6.000000
 -0.425000 -0.425000  0.375000      6.000000
 -0.375000 -0.425000  0.375000      6.000000
  0.425000  0.425000  0.425000      2.000000
  0.475000  0.425000  0.425000      6.000000
 -0.475000  0.425000  0.425000      6.000000
 -0.425000  0.425000  0.425000      6.000000
  0.475000  0.475000  0.425000      6.000000
 -0.475000  0.475000  0.425000      6.000000
 -0.425000  0.475000  0.425000      6.000000
  0.475000 -0.475000  0.425000      6.000000
 -0.475000 -0.475000  0.425000      6.000000
 -0.425000 -0.475000  0.425000      6.000000
  0.475000  0.475000  0.475000      2.000000
 -0.475000  0.475000  0.475000      6.000000

 Following cartesian coordinates:
            Coordinates               Weight
  0.050000  0.050000  0.050000      2.000000
  0.050000  0.100000  0.100000      6.000000
  0.050000  0.150000  0.150000      6.000000
  0.050000  0.200000  0.200000      6.000000
  0.050000  0.250000  0.250000      6.000000
  0.050000  0.300000  0.300000      6.000000
  0.050000  0.350000  0.350000      6.000000
  0.050000  0.400000  0.400000      6.000000
  0.050000  0.450000  0.450000      6.000000
  0.050000  0.500000  0.500000      6.000000
  0.050000 -0.450000 -0.450000      6.000000
  0.050000 -0.400000 -0.400000      6.000000
  0.050000 -0.350000 -0.350000      6.000000
  0.050000 -0.300000 -0.300000      6.000000
  0.050000 -0.250000 -0.250000      6.000000
  0.050000 -0.200000 -0.200000      6.000000
  0.050000 -0.150000 -0.150000      6.000000
  0.050000 -0.100000 -0.100000      6.000000
  0.050000 -0.050000 -0.050000      6.000000
  0.050000  0.000000  0.000000      6.000000
  0.100000  0.100000  0.150000      6.000000
  0.100000  0.150000  0.200000      6.000000
  0.100000  0.200000  0.250000      6.000000
  0.100000  0.250000  0.300000      6.000000
  0.100000  0.300000  0.350000      6.000000
  0.100000  0.350000  0.400000      6.000000
  0.100000  0.400000  0.450000      6.000000
  0.100000  0.450000  0.500000      6.000000
  0.100000  0.500000  0.550000      6.000000
  0.100000 -0.450000 -0.400000      6.000000
  0.100000 -0.400000 -0.350000      6.000000
  0.100000 -0.350000 -0.300000      6.000000
  0.100000 -0.300000 -0.250000      6.000000
  0.100000 -0.250000 -0.200000      6.000000
  0.100000 -0.200000 -0.150000      6.000000
  0.100000 -0.150000 -0.100000      6.000000
  0.100000 -0.100000 -0.050000      6.000000
  0.100000 -0.050000  0.000000      6.000000
  0.100000  0.000000  0.050000      6.000000
  0.150000  0.100000  0.200000      6.000000
  0.150000  0.150000  0.250000      6.000000
  0.150000  0.200000  0.300000      6.000000
  0.150000  0.250000  0.350000      6.000000
  0.150000  0.300000  0.400000      6.000000
  0.150000  0.350000  0.450000      6.000000
  0.150000  0.400000  0.500000      6.000000
  0.150000  0.450000  0.550000      6.000000
  0.150000  0.500000  0.600000      6.000000
  0.150000 -0.450000 -0.350000      6.000000
  0.150000 -0.400000 -0.300000      6.000000
  0.150000 -0.350000 -0.250000      6.000000
  0.150000 -0.300000 -0.200000      6.000000
  0.150000 -0.250000 -0.150000      6.000000
  0.150000 -0.200000 -0.100000      6.000000
  0.150000 -0.150000 -0.050000      6.000000
  0.150000 -0.100000  0.000000      6.000000
  0.150000 -0.050000  0.050000      6.000000
  0.150000  0.000000  0.100000      6.000000
  0.200000  0.100000  0.250000      6.000000
  0.200000  0.150000  0.300000      6.000000
[...]
 -0.050000 -0.100000 -0.900000      6.000000
 -0.050000 -0.050000 -0.850000      6.000000
 -0.050000  0.000000 -0.800000      6.000000
  0.850000  0.850000  0.850000      2.000000
  0.850000  0.900000  0.900000      6.000000
  0.850000 -0.050000 -0.050000      6.000000
  0.850000  0.000000  0.000000      6.000000
  0.900000  0.900000  0.950000      6.000000
  0.900000 -0.050000  0.000000      6.000000
  0.900000  0.000000  0.050000      6.000000
 -0.050000  0.900000  0.000000      6.000000
 -0.050000 -0.050000 -0.950000      6.000000
 -0.050000  0.000000 -0.900000      6.000000
  0.950000  0.950000  0.950000      2.000000
  0.950000  0.000000  0.000000      6.000000

 I would recommend the setting:
   dimension x,y,z NGX =    10 NGY =   10 NGZ =   10
 SYSTEM =  W bcc
 POSCAR =  W bulk bcc

 Startparameter for this run:
   NWRITE =      2    write-flag & timer
   PREC   = normal    normal or accurate (medium, high low for compatibility)
   ISTART =      0    job   : 0-new  1-cont  2-samecut
   ICHARG =      2    charge: 1-file 2-atom 10-const
   ISPIN  =      1    spin polarized calculation?
   LNONCOLLINEAR =      T non collinear calculations
   LSORBIT =      T    spin-orbit coupling
   INIWAV =      1    electr: 0-lowe 1-rand  2-diag
   LASPH  =      F    aspherical Exc in radial PAW
   METAGGA=      F    non-selfconsistent MetaGGA calc.

 Electronic Relaxation 1
   ENCUT  =  223.1 eV  16.39 Ry    4.05 a.u.   3.34  3.34  3.34*2*pi/ulx,y,z
   ENINI  =  223.1     initial cutoff
   ENAUG  =  373.4 eV  augmentation charge cutoff
   NELM   =     60;   NELMIN=  2; NELMDL= -5     # of ELM steps
   EDIFF  = 0.1E-03   stopping-criterion for ELM
   LREAL  =      F    real-space projection
[...]
  Fock        0.00000     0.00000     0.00000     0.00000     0.00000     0.00000
  Total       0.08155     0.08155     0.08155    -0.00165    -0.00165    -0.00165
  in kB       8.24051     8.24051     8.24051    -0.16694    -0.16694    -0.16694

 VOLUME and BASIS-vectors are now :
  energy-cutoff  :      223.06
  volume of cell :       15.86
      direct lattice vectors                 reciprocal lattice vectors
    -1.582600000  1.582600000  1.582600000     0.000000000  0.315935802  0.315935802
     1.582600000 -1.582600000  1.582600000     0.315935802  0.000000000  0.315935802
     1.582600000  1.582600000 -1.582600000     0.315935802  0.315935802  0.000000000

  length of vectors
     2.741143608  2.741143608  2.741143608     0.446800696  0.446800696  0.446800696

 FORCES acting on ions
    electron-ion (+dipol)            ewald-force                    non-local-force                 convergence-correction
   0.298E-15 0.120E-14 -.395E-15   -.416E-15 0.571E-15 0.387E-15   -.106E-21 0.106E-21 -.106E-21   -.140E-14 -.184E-14 -.821E-15
   0.298E-15 0.120E-14 -.395E-15   -.416E-15 0.571E-15 0.387E-15   -.106E-21 0.106E-21 -.106E-21   -.140E-14 -.184E-14 -.821E-15

 POSITION                                       TOTAL-FORCE (eV/Angst)
      0.00000      0.00000      0.00000        -0.000000      0.000000      0.000000
    total drift:                               -0.000000     -0.000000     -0.000000

  FREE ENERGIE OF THE ION-ELECTRON SYSTEM (eV)
  free  energy   TOTEN  =       -13.22638909 eV

  energy  without entropy=      -13.22576940  energy(sigma->0) =      -13.22618253

 writing wavefunctions

 plasma frequency squared (from intraband transitions)
      71.446       0.017       0.017
       0.017      71.446       0.017
       0.017       0.017      71.446

 electrical conductivity sigma (Mega S m-1) (frequency dependency in vasprun.xml)
       0.146       0.000       0.000
       0.000       0.146       0.000
       0.000       0.000       0.146

 plasma frequency squared (from intraband transitions)

 plasma frequency squared (from interband transitions, int dw w eps(2)(w)
     546.996       0.018       0.018
       0.018     546.996       0.018
       0.018       0.018     546.996
 plasma frequency squared  (valence only):     521.796

  frequency dependent IMAGINARY DIELECTRIC FUNCTION (independent particle, no local field effects)
     E(ev)      X         Y         Z        XY        YZ        ZX
    0.000000    0.000000    0.000000    0.000000    0.000000    0.000000    0.000000
    0.352327   20.823359   20.823359   20.823359    0.003159    0.003159    0.003159
    0.704653   38.519784   38.519784   38.519784    0.003867    0.003867    0.003867
    1.056980   21.550873   21.550873   21.550873    0.001141    0.001141    0.001141
    1.409306   26.371891   26.371891   26.371891    0.001663    0.001663    0.001663
    1.761633   23.773663   23.773663   23.773663    0.001167    0.001167    0.001167
    2.113960   23.938640   23.938640   23.938640    0.000394    0.000394    0.000394
    2.466286   25.149184   25.149184   25.149184    0.000111    0.000111    0.000111
    2.818613   21.286082   21.286082   21.286082   -0.000267   -0.000267   -0.000267
    3.170939   19.663664   19.663664   19.663664    0.000240    0.000240    0.000240
    3.523266   22.203744   22.203744   22.203744    0.000448    0.000448    0.000448
    3.875593   18.464348   18.464348   18.464348    0.000101    0.000101    0.000101
    4.227919   17.401153   17.401153   17.401153    0.000451    0.000451    0.000451
    4.580246   18.413287   18.413287   18.413287    0.000459    0.000459    0.000459
    4.932572   22.024649   22.024649   22.024649    0.001097    0.001097    0.001097
    5.284899   26.493382   26.493382   26.493382    0.000063    0.000063    0.000063
    5.637226   18.178801   18.178801   18.178801   -0.000748   -0.000748   -0.000748
    5.989552   13.736801   13.736801   13.736801   -0.000370   -0.000370   -0.000370
    6.341879    9.054839    9.054839    9.054839   -0.000472   -0.000472   -0.000472
    6.694205    7.498513    7.498513    7.498513   -0.000180   -0.000180   -0.000180
    7.046532    6.080664    6.080664    6.080664   -0.000560   -0.000560   -0.000560
    7.398859    4.503558    4.503558    4.503558   -0.000026   -0.000026   -0.000026
    7.751185    3.874927    3.874927    3.874927   -0.000213   -0.000213   -0.000213
    8.103512    3.394399    3.394399    3.394399   -0.000079   -0.000079   -0.000079
    8.455838    3.862790    3.862790    3.862790   -0.000478   -0.000478   -0.000478
    8.808165    3.324567    3.324567    3.324567   -0.000016   -0.000016   -0.000016
    9.160492    2.949896    2.949896    2.949896   -0.000100   -0.000100   -0.000100
    9.512818    3.310746    3.310746    3.310746   -0.000096   -0.000096   -0.000096
    9.865145    4.003104    4.003104    4.003104   -0.000235   -0.000235   -0.000235
   10.217471    3.924814    3.924814    3.924814   -0.000204   -0.000204   -0.000204
   10.569798    4.329167    4.329167    4.329167    0.000066    0.000066    0.000066
   10.922125    3.685580    3.685580    3.685580    0.000063    0.000063    0.000063
   11.274451    4.244765    4.244765    4.244765    0.000060    0.000060    0.000060
   11.626778    3.393407    3.393407    3.393407    0.000214    0.000214    0.000214
   11.979104    3.270976    3.270976    3.270976    0.000048    0.000048    0.000048
   12.331431    2.921856    2.921856    2.921856   -0.000018   -0.000018   -0.000018
   12.683758    3.032606    3.032606    3.032606    0.000188    0.000188    0.000188
   13.036084    2.582567    2.582567    2.582567   -0.000021   -0.000021   -0.000021
   13.388411    2.135933    2.135933    2.135933    0.000161    0.000161    0.000161
   13.740737    1.932715    1.932715    1.932715    0.000070    0.000070    0.000070
   14.093064    1.758707    1.758707    1.758707    0.000107    0.000107    0.000107
   14.445391    1.415702    1.415702    1.415702    0.000116    0.000116    0.000116
   14.797717    1.838359    1.838359    1.838359    0.000078    0.000078    0.000078
   15.150044    1.519489    1.519489    1.519489    0.000053    0.000053    0.000053
   15.502370    1.612727    1.612727    1.612727    0.000063    0.000063    0.000063
   15.854697    1.855590    1.855590    1.855590    0.000039    0.000039    0.000039
   16.207024    1.950109    1.950109    1.950109   -0.000102   -0.000102   -0.000102
   16.559350    2.319157    2.319157    2.319157   -0.000428   -0.000428   -0.000428
   16.911677    2.408728    2.408728    2.408728    0.001203    0.001203    0.001203
   17.264003    2.257754    2.257754    2.257754    0.001538    0.001538    0.001538
   17.616330    1.856686    1.856686    1.856686    0.000191    0.000191    0.000191
   17.968657    1.672167    1.672167    1.672167    0.000420    0.000420    0.000420
   18.320983    1.618615    1.618615    1.618615    0.000366    0.000366    0.000366
   18.673310    1.256693    1.256693    1.256693    0.000021    0.000021    0.000021
   19.025636    1.155044    1.155044    1.155044   -0.000122   -0.000122   -0.000122
   19.377963    1.132223    1.132223    1.132223    0.000214    0.000214    0.000214
   19.730290    0.595410    0.595410    0.595410    0.000050    0.000050    0.000050
   20.082616    0.340374    0.340374    0.340374    0.000029    0.000029    0.000029
   20.434943    0.211750    0.211750    0.211750    0.000029    0.000029    0.000029
   20.787269    0.131577    0.131577    0.131577   -0.000026   -0.000026   -0.000026
[...]
   29.947761    0.005563    0.005563    0.005563    0.000000    0.000000    0.000000
   30.300088    0.005316    0.005316    0.005316    0.000000    0.000000    0.000000
   30.652414    0.005085    0.005085    0.005085    0.000000    0.000000    0.000000
   31.004741    0.004869    0.004869    0.004869    0.000000    0.000000    0.000000
   31.357067    0.004666    0.004666    0.004666    0.000000    0.000000    0.000000
   31.709394    0.004475    0.004475    0.004475    0.000000    0.000000    0.000000
   32.061721    0.004295    0.004295    0.004295    0.000000    0.000000    0.000000
   32.414047    0.004126    0.004126    0.004126    0.000000    0.000000    0.000000
   32.766374    0.003966    0.003966    0.003966    0.000000    0.000000    0.000000
   33.118700    0.003814    0.003814    0.003814    0.000000    0.000000    0.000000
   33.471027    0.003671    0.003671    0.003671    0.000000    0.000000    0.000000
   33.823354    0.003536    0.003536    0.003536    0.000000    0.000000    0.000000
   34.175680    0.003407    0.003407    0.003407    0.000000    0.000000    0.000000
   34.528007    0.003286    0.003286    0.003286    0.000000    0.000000    0.000000
   34.880333    0.003170    0.003170    0.003170    0.000000    0.000000    0.000000

  frequency dependent      REAL DIELECTRIC FUNCTION (independent particle, no local field effects)
     E(ev)      X         Y         Z        XY        YZ        ZX
    0.000000   58.688639   58.688639   58.688639    0.004386    0.004386    0.004386
    0.352327   57.126082   57.126082   57.126082    0.003667    0.003667    0.003667
    0.704653   46.802802   46.802802   46.802802    0.001781    0.001781    0.001781
    1.056980   17.399900   17.399900   17.399900   -0.000706   -0.000706   -0.000706
    1.409306   25.811245   25.811245   25.811245   -0.001054   -0.001054   -0.001054
    1.761633   15.173569   15.173569   15.173569   -0.000891   -0.000891   -0.000891
    2.113960   17.107830   17.107830   17.107830    0.000259    0.000259    0.000259
    2.466286   12.668390   12.668390   12.668390   -0.001217   -0.001217   -0.001217
    2.818613    9.040604    9.040604    9.040604   -0.000215   -0.000215   -0.000215
    3.170939    8.394391    8.394391    8.394391    0.000191    0.000191    0.000191
    3.523266    7.123413    7.123413    7.123413   -0.000229   -0.000229   -0.000229
    3.875593    2.891975    2.891975    2.891975    0.000015    0.000015    0.000015
    4.227919    4.863463    4.863463    4.863463    0.000101    0.000101    0.000101
    4.580246    3.981181    3.981181    3.981181   -0.000198   -0.000198   -0.000198
    4.932572    5.302477    5.302477    5.302477   -0.000393   -0.000393   -0.000393
    5.284899   -3.509328   -3.509328   -3.509328   -0.001643   -0.001643   -0.001643
    5.637226  -10.634171  -10.634171  -10.634171   -0.000411   -0.000411   -0.000411
    5.989552  -10.461313  -10.461313  -10.461313   -0.000408   -0.000408   -0.000408
    6.341879   -9.646147   -9.646147   -9.646147   -0.000040   -0.000040   -0.000040
    6.694205   -7.752443   -7.752443   -7.752443   -0.000258   -0.000258   -0.000258
    7.046532   -6.725655   -6.725655   -6.725655    0.000239    0.000239    0.000239
    7.398859   -5.903746   -5.903746   -5.903746    0.000104    0.000104    0.000104
    7.751185   -4.653179   -4.653179   -4.653179    0.000002    0.000002    0.000002
    8.103512   -3.402987   -3.402987   -3.402987   -0.000080   -0.000080   -0.000080
    8.455838   -2.649226   -2.649226   -2.649226    0.000204    0.000204    0.000204
    8.808165   -2.613973   -2.613973   -2.613973    0.000179    0.000179    0.000179
    9.160492   -1.957911   -1.957911   -1.957911    0.000141    0.000141    0.000141
    9.512818   -0.810669   -0.810669   -0.810669    0.000089    0.000089    0.000089
    9.865145   -1.218685   -1.218685   -1.218685    0.000261    0.000261    0.000261
   10.217471   -0.834678   -0.834678   -0.834678    0.000189    0.000189    0.000189
   10.569798   -1.904823   -1.904823   -1.904823    0.000341    0.000341    0.000341
   10.922125   -1.541947   -1.541947   -1.541947    0.000370    0.000370    0.000370
   11.274451   -1.500477   -1.500477   -1.500477    0.000239    0.000239    0.000239
   11.626778   -2.490358   -2.490358   -2.490358    0.000086    0.000086    0.000086
   11.979104   -2.013235   -2.013235   -2.013235    0.000168    0.000168    0.000168
   12.331431   -1.581035   -1.581035   -1.581035    0.000238    0.000238    0.000238
   12.683758   -2.202513   -2.202513   -2.202513   -0.000048   -0.000048   -0.000048
   13.036084   -2.062409   -2.062409   -2.062409    0.000261    0.000261    0.000261
   13.388411   -1.847702   -1.847702   -1.847702    0.000214    0.000214    0.000214
   13.740737   -1.814111   -1.814111   -1.814111    0.000072    0.000072    0.000072
   14.093064   -1.609832   -1.609832   -1.609832    0.000102    0.000102    0.000102
   14.445391   -1.300509   -1.300509   -1.300509    0.000178    0.000178    0.000178
   14.797717   -0.895575   -0.895575   -0.895575    0.000112    0.000112    0.000112
   15.150044   -1.140444   -1.140444   -1.140444    0.000115    0.000115    0.000115
   15.502370   -0.625344   -0.625344   -0.625344    0.000214    0.000214    0.000214
   15.854697   -0.643372   -0.643372   -0.643372    0.000177    0.000177    0.000177
   16.207024   -0.587241   -0.587241   -0.587241   -0.000086   -0.000086   -0.000086
   16.559350   -0.562955   -0.562955   -0.562955    0.002546    0.002546    0.002546
   16.911677   -1.145124   -1.145124   -1.145124   -0.000376   -0.000376   -0.000376
   17.264003   -1.371624   -1.371624   -1.371624   -0.000448   -0.000448   -0.000448
   17.616330   -1.617367   -1.617367   -1.617367   -0.000645   -0.000645   -0.000645
   17.968657   -1.468135   -1.468135   -1.468135   -0.000054   -0.000054   -0.000054
   18.320983   -1.673314   -1.673314   -1.673314   -0.000552   -0.000552   -0.000552
   18.673310   -1.688992   -1.688992   -1.688992   -0.000528   -0.000528   -0.000528
   19.025636   -1.472181   -1.472181   -1.472181   -0.000188   -0.000188   -0.000188
   19.377963   -1.839537   -1.839537   -1.839537   -0.000168   -0.000168   -0.000168
   19.730290   -1.799112   -1.799112   -1.799112   -0.000239   -0.000239   -0.000239
   20.082616   -1.493329   -1.493329   -1.493329   -0.000192   -0.000192   -0.000192
   20.434943   -1.312552   -1.312552   -1.312552   -0.000178   -0.000178   -0.000178
   20.787269   -1.091939   -1.091939   -1.091939   -0.000172   -0.000172   -0.000172
[...]
   29.947761    0.297158    0.297158    0.297158   -0.000029   -0.000029   -0.000029
   30.300088    0.316318    0.316318    0.316318   -0.000028   -0.000028   -0.000028
   30.652414    0.334636    0.334636    0.334636   -0.000027   -0.000027   -0.000027
   31.004741    0.352167    0.352167    0.352167   -0.000026   -0.000026   -0.000026
   31.357067    0.368959    0.368959    0.368959   -0.000026   -0.000026   -0.000026
   31.709394    0.385057    0.385057    0.385057   -0.000025   -0.000025   -0.000025
   32.061721    0.400503    0.400503    0.400503   -0.000024   -0.000024   -0.000024
   32.414047    0.415333    0.415333    0.415333   -0.000023   -0.000023   -0.000023
   32.766374    0.429583    0.429583    0.429583   -0.000023   -0.000023   -0.000023
   33.118700    0.443286    0.443286    0.443286   -0.000022   -0.000022   -0.000022
   33.471027    0.456470    0.456470    0.456470   -0.000021   -0.000021   -0.000021
   33.823354    0.469164    0.469164    0.469164   -0.000021   -0.000021   -0.000021
   34.175680    0.481394    0.481394    0.481394   -0.000020   -0.000020   -0.000020
   34.528007    0.493181    0.493181    0.493181   -0.000020   -0.000020   -0.000020
   34.880333    0.504551    0.504551    0.504551   -0.000019   -0.000019   -0.000019

 The outermost node in the dielectric function lies at epsilon=  26.0

 Spin-Orbit-Coupling matrix elements

 Ion:    1  E_soc:     -0.4576758
 l=   1
     0.0000000    -0.0350690    -0.0350690
    -0.0350690     0.0000000    -0.0350690
    -0.0350690    -0.0350690     0.0000000
 l=   2
     0.0000000    -0.0109580     0.0000000    -0.0109580    -0.0302523
    -0.0109580     0.0000000    -0.0226893    -0.0109580    -0.0075631
     0.0000000    -0.0226893     0.0000000    -0.0226893     0.0000000
    -0.0109580    -0.0109580    -0.0226893     0.0000000    -0.0075631
    -0.0302523    -0.0075631     0.0000000    -0.0075631     0.0000000
 l=   3
     0.0000000     0.0000000     0.0000000     0.0000000     0.0000000     0.0000000     0.0000000
     0.0000000     0.0000000     0.0000000     0.0000000     0.0000000     0.0000000     0.0000000
     0.0000000     0.0000000     0.0000000     0.0000000     0.0000000     0.0000000     0.0000000
     0.0000000     0.0000000     0.0000000     0.0000000     0.0000000     0.0000000     0.0000000
     0.0000000     0.0000000     0.0000000     0.0000000     0.0000000     0.0000000     0.0000000
     0.0000000     0.0000000     0.0000000     0.0000000     0.0000000     0.0000000     0.0000000
     0.0000000     0.0000000     0.0000000     0.0000000     0.0000000     0.0000000     0.0000000