 vasp.5.4.4.18Apr17-6-g9f103f2a35 (build May 20 2018 16:52:39) complex

 executed on             LinuxIFC date 2022.11.17  21:34:40

 INCAR:
 POTCAR:    PAW Nb_pv 09Jan2002

 POTCAR:    PAW Nb_pv 09Jan2002
   VRHFIN =Nb: s1d4

   TITEL  = PAW Nb_pv 09Jan2002
   POMASS =   92.910; ZVAL   =   11.000    mass and valenz
   ENMAX  =  207.263; ENMIN  =  155.447 eV

  PAW Nb_pv 09Jan2002                   :

 POSCAR: sic2 Nb
  positions in direct lattice
 exchange correlation table for  LEXCH =        2
   RHO(1)=    0.500       N(1)  =     2000
   RHO(2)=  100.500       N(2)  =     4000

 ion  position               nearest neighbor table
   1  0.000  0.000  0.000-   2 2.86   2 2.86   2 2.86   2 2.86   2 2.86   2 2.86   2 2.86   2 2.86

   2  0.500  0.500  0.500-   1 2.86   1 2.86   1 2.86   1 2.86   1 2.86   1 2.86   1 2.86   1 2.86

  LATTYP: Found a simple cubic cell.
 ALAT       =     3.3008000000

  Lattice vectors:

 A1 = (   3.3008000000,   0.0000000000,   0.0000000000)
 A2 = (   0.0000000000,   3.3008000000,   0.0000000000)
 A3 = (   0.0000000000,   0.0000000000,   3.3008000000)

Analysis of symmetry for initial positions (statically):
 Subroutine PRICEL returns following result:

  LATTYP: Found a body centered cubic cell.
 ALAT       =     3.3008000000

[...]

   2 primitive cells build up your supercell.

 Routine SETGRP: Setting up the symmetry group for a
 simple cubic supercell.

 Subroutine GETGRP returns: Found 48 space group operations
 (whereof 48 operations were pure point group operations)
 out of a pool of 48 trial point group operations.

The static configuration has the point symmetry O_h .

Analysis of symmetry for dynamics (positions and initial velocities):
 Subroutine PRICEL returns following result:

  LATTYP: Found a body centered cubic cell.
 ALAT       =     3.3008000000

  Lattice vectors:

 A1 = (   1.6504000000,   1.6504000000,   1.6504000000)
 A2 = (   1.6504000000,  -1.6504000000,  -1.6504000000)
 A3 = (  -1.6504000000,   1.6504000000,  -1.6504000000)

   2 primitive cells build up your supercell.

 Routine SETGRP: Setting up the symmetry group for a
 simple cubic supercell.

 Subroutine GETGRP returns: Found 48 space group operations
 (whereof 48 operations were pure point group operations)
 out of a pool of 48 trial point group operations.

The dynamic configuration has the point symmetry O_h .

 Subroutine INISYM returns: Found 48 space group operations
 (whereof 48 operations are pure point group operations),
 and found     2 'primitive' translations

 KPOINTS: 20*20*20

Automatic generation of k-mesh.
Space group operators:
 irot       det(A)        alpha          n_x          n_y          n_z        tau_x        tau_y        tau_z
    1     1.000000     0.000000     1.000000     0.000000     0.000000     0.000000     0.000000     0.000000
    2    -1.000000     0.000000     1.000000     0.000000     0.000000     0.000000     0.000000     0.000000
    3     1.000000   120.000000    -0.577350    -0.577350    -0.577350     0.000000     0.000000     0.000000
    4    -1.000000   120.000000    -0.577350    -0.577350    -0.577350     0.000000     0.000000     0.000000
    5     1.000000   120.000000     0.577350     0.577350     0.577350     0.000000     0.000000     0.000000
    6    -1.000000   120.000000     0.577350     0.577350     0.577350     0.000000     0.000000     0.000000
    7     1.000000    90.000000     0.000000     0.000000    -1.000000     0.000000     0.000000     0.000000
    8    -1.000000    90.000000     0.000000     0.000000    -1.000000     0.000000     0.000000     0.000000
    9     1.000000   180.000000     0.000000     0.707107     0.707107     0.000000     0.000000     0.000000
   10    -1.000000   180.000000     0.000000     0.707107     0.707107     0.000000     0.000000     0.000000
   11     1.000000    90.000000     0.000000     1.000000     0.000000     0.000000     0.000000     0.000000
   12    -1.000000    90.000000     0.000000     1.000000     0.000000     0.000000     0.000000     0.000000
   13     1.000000   180.000000     0.000000     0.000000     1.000000     0.000000     0.000000     0.000000
   14    -1.000000   180.000000     0.000000     0.000000     1.000000     0.000000     0.000000     0.000000
   15     1.000000   120.000000    -0.577350     0.577350     0.577350     0.000000     0.000000     0.000000
   16    -1.000000   120.000000    -0.577350     0.577350     0.577350     0.000000     0.000000     0.000000
   17     1.000000   120.000000    -0.577350     0.577350    -0.577350     0.000000     0.000000     0.000000
   18    -1.000000   120.000000    -0.577350     0.577350    -0.577350     0.000000     0.000000     0.000000
   19     1.000000    90.000000     0.000000     0.000000     1.000000     0.000000     0.000000     0.000000
   20    -1.000000    90.000000     0.000000     0.000000     1.000000     0.000000     0.000000     0.000000
   21     1.000000    90.000000    -1.000000     0.000000     0.000000     0.000000     0.000000     0.000000
   22    -1.000000    90.000000    -1.000000     0.000000     0.000000     0.000000     0.000000     0.000000
   23     1.000000   180.000000     0.707107     0.000000     0.707107     0.000000     0.000000     0.000000
   24    -1.000000   180.000000     0.707107     0.000000     0.707107     0.000000     0.000000     0.000000
   25     1.000000   120.000000     0.577350    -0.577350     0.577350     0.000000     0.000000     0.000000
   26    -1.000000   120.000000     0.577350    -0.577350     0.577350     0.000000     0.000000     0.000000
   27     1.000000   120.000000    -0.577350    -0.577350     0.577350     0.000000     0.000000     0.000000
   28    -1.000000   120.000000    -0.577350    -0.577350     0.577350     0.000000     0.000000     0.000000
   29     1.000000   180.000000     1.000000     0.000000     0.000000     0.000000     0.000000     0.000000
   30    -1.000000   180.000000     1.000000     0.000000     0.000000     0.000000     0.000000     0.000000
   31     1.000000    90.000000     0.000000    -1.000000     0.000000     0.000000     0.000000     0.000000
   32    -1.000000    90.000000     0.000000    -1.000000     0.000000     0.000000     0.000000     0.000000
   33     1.000000   180.000000     0.707107     0.707107     0.000000     0.000000     0.000000     0.000000
   34    -1.000000   180.000000     0.707107     0.707107     0.000000     0.000000     0.000000     0.000000
   35     1.000000    90.000000     1.000000     0.000000     0.000000     0.000000     0.000000     0.000000
   36    -1.000000    90.000000     1.000000     0.000000     0.000000     0.000000     0.000000     0.000000
   37     1.000000   120.000000     0.577350    -0.577350    -0.577350     0.000000     0.000000     0.000000
   38    -1.000000   120.000000     0.577350    -0.577350    -0.577350     0.000000     0.000000     0.000000
   39     1.000000   180.000000     0.000000     1.000000     0.000000     0.000000     0.000000     0.000000
   40    -1.000000   180.000000     0.000000     1.000000     0.000000     0.000000     0.000000     0.000000
   41     1.000000   120.000000     0.577350     0.577350    -0.577350     0.000000     0.000000     0.000000
   42    -1.000000   120.000000     0.577350     0.577350    -0.577350     0.000000     0.000000     0.000000
   43     1.000000   180.000000     0.000000    -0.707107     0.707107     0.000000     0.000000     0.000000
   44    -1.000000   180.000000     0.000000    -0.707107     0.707107     0.000000     0.000000     0.000000
   45     1.000000   180.000000     0.707107    -0.707107     0.000000     0.000000     0.000000     0.000000
   46    -1.000000   180.000000     0.707107    -0.707107     0.000000     0.000000     0.000000     0.000000
   47     1.000000   180.000000     0.707107     0.000000    -0.707107     0.000000     0.000000     0.000000
   48    -1.000000   180.000000     0.707107     0.000000    -0.707107     0.000000     0.000000     0.000000

 Subroutine IBZKPT returns following result:

 Found    220 irreducible k-points:

 Following reciprocal coordinates:
            Coordinates               Weight
  0.025000  0.025000  0.025000      8.000000
  0.075000  0.025000  0.025000     24.000000
  0.125000  0.025000  0.025000     24.000000
  0.175000  0.025000  0.025000     24.000000
  0.225000  0.025000  0.025000     24.000000
  0.275000  0.025000  0.025000     24.000000
  0.325000  0.025000  0.025000     24.000000
  0.375000  0.025000  0.025000     24.000000
  0.425000  0.025000  0.025000     24.000000
  0.475000  0.025000  0.025000     24.000000
  0.075000  0.075000  0.025000     24.000000
  0.125000  0.075000  0.025000     48.000000
  0.175000  0.075000  0.025000     48.000000
  0.225000  0.075000  0.025000     48.000000
  0.275000  0.075000  0.025000     48.000000
  0.325000  0.075000  0.025000     48.000000
  0.375000  0.075000  0.025000     48.000000
  0.425000  0.075000  0.025000     48.000000
  0.475000  0.075000  0.025000     48.000000
  0.125000  0.125000  0.025000     24.000000
  0.175000  0.125000  0.025000     48.000000
  0.225000  0.125000  0.025000     48.000000
  0.275000  0.125000  0.025000     48.000000
  0.325000  0.125000  0.025000     48.000000
  0.375000  0.125000  0.025000     48.000000
  0.425000  0.125000  0.025000     48.000000
  0.475000  0.125000  0.025000     48.000000
  0.175000  0.175000  0.025000     24.000000
  0.225000  0.175000  0.025000     48.000000
  0.275000  0.175000  0.025000     48.000000
  0.325000  0.175000  0.025000     48.000000
  0.375000  0.175000  0.025000     48.000000
  0.425000  0.175000  0.025000     48.000000
  0.475000  0.175000  0.025000     48.000000
  0.225000  0.225000  0.025000     24.000000
  0.275000  0.225000  0.025000     48.000000
  0.325000  0.225000  0.025000     48.000000
  0.375000  0.225000  0.025000     48.000000
  0.425000  0.225000  0.025000     48.000000
  0.475000  0.225000  0.025000     48.000000
  0.275000  0.275000  0.025000     24.000000
  0.325000  0.275000  0.025000     48.000000
  0.375000  0.275000  0.025000     48.000000
  0.425000  0.275000  0.025000     48.000000
  0.475000  0.275000  0.025000     48.000000
  0.325000  0.325000  0.025000     24.000000
  0.375000  0.325000  0.025000     48.000000
  0.425000  0.325000  0.025000     48.000000
  0.475000  0.325000  0.025000     48.000000
  0.375000  0.375000  0.025000     24.000000
  0.425000  0.375000  0.025000     48.000000
  0.475000  0.375000  0.025000     48.000000
  0.425000  0.425000  0.025000     24.000000
  0.475000  0.425000  0.025000     48.000000
  0.475000  0.475000  0.025000     24.000000
  0.075000  0.075000  0.075000      8.000000
  0.125000  0.075000  0.075000     24.000000
  0.175000  0.075000  0.075000     24.000000
  0.225000  0.075000  0.075000     24.000000
  0.275000  0.075000  0.075000     24.000000
[...]
  0.425000  0.375000  0.325000     48.000000
  0.475000  0.375000  0.325000     48.000000
  0.425000  0.425000  0.325000     24.000000
  0.475000  0.425000  0.325000     48.000000
  0.475000  0.475000  0.325000     24.000000
  0.375000  0.375000  0.375000      8.000000
  0.425000  0.375000  0.375000     24.000000
[...]
 k-point 39 :   0.4250 0.2250 0.0250  plane waves:     424
 k-point 40 :   0.4750 0.2250 0.0250  plane waves:     431
 k-point 41 :   0.2750 0.2750 0.0250  plane waves:     421
 k-point 42 :   0.3250 0.2750 0.0250  plane waves:     420
 k-point 43 :   0.3750 0.2750 0.0250  plane waves:     420
 k-point 44 :   0.4250 0.2750 0.0250  plane waves:     424
 k-point 45 :   0.4750 0.2750 0.0250  plane waves:     428
 k-point 46 :   0.3250 0.3250 0.0250  plane waves:     425
 k-point 47 :   0.3750 0.3250 0.0250  plane waves:     418
 k-point 48 :   0.4250 0.3250 0.0250  plane waves:     417
 k-point 49 :   0.4750 0.3250 0.0250  plane waves:     420
 k-point 50 :   0.3750 0.3750 0.0250  plane waves:     416
 k-point 51 :   0.4250 0.3750 0.0250  plane waves:     417
 k-point 52 :   0.4750 0.3750 0.0250  plane waves:     421
 k-point 53 :   0.4250 0.4250 0.0250  plane waves:     416
 k-point 54 :   0.4750 0.4250 0.0250  plane waves:     413
 k-point 55 :   0.4750 0.4750 0.0250  plane waves:     419
 k-point 56 :   0.0750 0.0750 0.0750  plane waves:     437
 k-point 57 :   0.1250 0.0750 0.0750  plane waves:     435
 k-point 58 :   0.1750 0.0750 0.0750  plane waves:     430
 k-point 59 :   0.2250 0.0750 0.0750  plane waves:     431
 k-point 60 :   0.2750 0.0750 0.0750  plane waves:     425
[...]
 k-point 85 :   0.4750 0.2250 0.0750  plane waves:     425
 k-point 86 :   0.2750 0.2750 0.0750  plane waves:     418
 k-point 87 :   0.3250 0.2750 0.0750  plane waves:     418
 k-point 88 :   0.3750 0.2750 0.0750  plane waves:     421
 k-point 89 :   0.4250 0.2750 0.0750  plane waves:     423
 k-point 90 :   0.4750 0.2750 0.0750  plane waves:     425
 k-point 91 :   0.3250 0.3250 0.0750  plane waves:     419
 k-point 92 :   0.3750 0.3250 0.0750  plane waves:     419
 k-point 93 :   0.4250 0.3250 0.0750  plane waves:     420
 k-point 94 :   0.4750 0.3250 0.0750  plane waves:     417
 k-point 95 :   0.3750 0.3750 0.0750  plane waves:     415
 k-point 96 :   0.4250 0.3750 0.0750  plane waves:     423
 k-point 97 :   0.4750 0.3750 0.0750  plane waves:     420
 k-point 98 :   0.4250 0.4250 0.0750  plane waves:     420
 k-point 99 :   0.4750 0.4250 0.0750  plane waves:     420
 k-point ** :   0.4750 0.4750 0.0750  plane waves:     413
 k-point ** :   0.1250 0.1250 0.1250  plane waves:     431
 k-point ** :   0.1750 0.1250 0.1250  plane waves:     428
 k-point ** :   0.2250 0.1250 0.1250  plane waves:     428
 k-point ** :   0.2750 0.1250 0.1250  plane waves:     426
 k-point ** :   0.3250 0.1250 0.1250  plane waves:     427
 k-point ** :   0.3750 0.1250 0.1250  plane waves:     426
 k-point ** :   0.4250 0.1250 0.1250  plane waves:     429
 k-point ** :   0.4750 0.1250 0.1250  plane waves:     424
 k-point ** :   0.1750 0.1750 0.1250  plane waves:     430
 k-point ** :   0.2250 0.1750 0.1250  plane waves:     424
 k-point ** :   0.2750 0.1750 0.1250  plane waves:     424
 k-point ** :   0.3250 0.1750 0.1250  plane waves:     423
 k-point ** :   0.3750 0.1750 0.1250  plane waves:     424
 k-point ** :   0.4250 0.1750 0.1250  plane waves:     427
 k-point ** :   0.4750 0.1750 0.1250  plane waves:     425
 k-point ** :   0.2250 0.2250 0.1250  plane waves:     423
 k-point ** :   0.2750 0.2250 0.1250  plane waves:     422
 k-point ** :   0.3250 0.2250 0.1250  plane waves:     421
 k-point ** :   0.3750 0.2250 0.1250  plane waves:     422
 k-point ** :   0.4250 0.2250 0.1250  plane waves:     427
 k-point ** :   0.4750 0.2250 0.1250  plane waves:     425
 k-point ** :   0.2750 0.2750 0.1250  plane waves:     420
 k-point ** :   0.3250 0.2750 0.1250  plane waves:     418
 k-point ** :   0.3750 0.2750 0.1250  plane waves:     421
 k-point ** :   0.4250 0.2750 0.1250  plane waves:     425
 k-point ** :   0.4750 0.2750 0.1250  plane waves:     423
 k-point ** :   0.3250 0.3250 0.1250  plane waves:     421
 k-point ** :   0.3750 0.3250 0.1250  plane waves:     421
 k-point ** :   0.4250 0.3250 0.1250  plane waves:     420
 k-point ** :   0.4750 0.3250 0.1250  plane waves:     421
 k-point ** :   0.3750 0.3750 0.1250  plane waves:     419
 k-point ** :   0.4250 0.3750 0.1250  plane waves:     419
 k-point ** :   0.4750 0.3750 0.1250  plane waves:     422
 k-point ** :   0.4250 0.4250 0.1250  plane waves:     418
 k-point ** :   0.4750 0.4250 0.1250  plane waves:     419
 k-point ** :   0.4750 0.4750 0.1250  plane waves:     422
 k-point ** :   0.1750 0.1750 0.1750  plane waves:     428
 k-point ** :   0.2250 0.1750 0.1750  plane waves:     424
 k-point ** :   0.2750 0.1750 0.1750  plane waves:     421
 k-point ** :   0.3250 0.1750 0.1750  plane waves:     423
 k-point ** :   0.3750 0.1750 0.1750  plane waves:     427
 k-point ** :   0.4250 0.1750 0.1750  plane waves:     426
 k-point ** :   0.4750 0.1750 0.1750  plane waves:     428
 k-point ** :   0.2250 0.2250 0.1750  plane waves:     423
 k-point ** :   0.2750 0.2250 0.1750  plane waves:     422
 k-point ** :   0.3250 0.2250 0.1750  plane waves:     421
 k-point ** :   0.3750 0.2250 0.1750  plane waves:     425
 k-point ** :   0.4250 0.2250 0.1750  plane waves:     428
 k-point ** :   0.4750 0.2250 0.1750  plane waves:     426
 k-point ** :   0.2750 0.2750 0.1750  plane waves:     424
 k-point ** :   0.3250 0.2750 0.1750  plane waves:     423
 k-point ** :   0.3750 0.2750 0.1750  plane waves:     424
 k-point ** :   0.4250 0.2750 0.1750  plane waves:     424
 k-point ** :   0.4750 0.2750 0.1750  plane waves:     425
 k-point ** :   0.3250 0.3250 0.1750  plane waves:     419
 k-point ** :   0.3750 0.3250 0.1750  plane waves:     421
 k-point ** :   0.4250 0.3250 0.1750  plane waves:     424
 k-point ** :   0.4750 0.3250 0.1750  plane waves:     423
 k-point ** :   0.3750 0.3750 0.1750  plane waves:     421
[...]
 k-point ** :   0.4250 0.3750 0.3250  plane waves:     428
 k-point ** :   0.4750 0.3750 0.3250  plane waves:     424
 k-point ** :   0.4250 0.4250 0.3250  plane waves:     430
 k-point ** :   0.4750 0.4250 0.3250  plane waves:     428
 k-point ** :   0.4750 0.4750 0.3250  plane waves:     424
 k-point ** :   0.3750 0.3750 0.3750  plane waves:     423
 k-point ** :   0.4250 0.3750 0.3750  plane waves:     428
 k-point ** :   0.4750 0.3750 0.3750  plane waves:     424
 k-point ** :   0.4250 0.4250 0.3750  plane waves:     426
 k-point ** :   0.4750 0.4250 0.3750  plane waves:     426
 k-point ** :   0.4750 0.4750 0.3750  plane waves:     432
 k-point ** :   0.4250 0.4250 0.4250  plane waves:     426
 k-point ** :   0.4750 0.4250 0.4250  plane waves:     430
 k-point ** :   0.4750 0.4750 0.4250  plane waves:     432
 k-point ** :   0.4750 0.4750 0.4750  plane waves:     432

 maximum and minimum number of plane-waves per node :       444      413

 maximum number of plane-waves:       444
 maximum index in each direction:
   IXMAX=    4   IYMAX=    4   IZMAX=    4
   IXMIN=   -5   IYMIN=   -5   IZMIN=   -5

 serial   3D FFT for wavefunctions
 parallel 3D FFT for charge:
    minimum data exchange during FFTs selected (reduces bandwidth)

 Broyden mixing: mesh for mixing (old mesh)
   NGX =  9   NGY =  9   NGZ =  9
  (NGX  = 28   NGY  = 28   NGZ  = 28)
  gives a total of    729 points

 initial charge density was supplied:
 charge density of overlapping atoms calculated
 number of electron      22.0000000 magnetization
 keeping initial charge density in first step

 Maximum index for augmentation-charges          341 (set IRDMAX)

 First call to EWALD:  gamma=   0.537
 Maximum number of real-space cells 3x 3x 3
 Maximum number of reciprocal cells 3x 3x 3

--------------------------------------- Iteration      1(   1)  ---------------------------------------

 BZINTS: Fermi energy:  6.953143; 22.000000 electrons
         Band energy:-230.342626;  BLOECHL correction: -0.102491

 eigenvalue-minimisations  : 18240
 total energy-change (2. order) :-0.2705390E+01  (-0.1097718E+04)
 number of electron      22.0000000 magnetization
 augmentation part       22.0000000 magnetization

 Free energy of the ion-electron system (eV)
  alpha Z        PSCENC =       249.60523850
  Ewald energy   TEWEN  =     -1921.02116984
  -Hartree energ DENC   =      -271.93837114
  -exchange      EXHF   =         0.00000000
  -V(xc)+E(xc)   XCENC  =        54.59193041
  PAW double counting   =      1667.18158126    -1643.50825161
  entropy T*S    EENTRO =         0.00000000
  eigenvalues    EBANDS =      -230.34262609
  atomic energy  EATOM  =      2092.72627849
  Solvation  Ediel_sol  =         0.00000000
  free energy    TOTEN  =        -2.70539003 eV

  energy without entropy =       -2.70539003  energy(sigma->0) =       -2.70539003

[...]

 eigenvalue-minimisations  : 21360
 total energy-change (2. order) : 0.5188667E-09  (-0.8581318E-11)
 number of electron      22.0000103 magnetization
 augmentation part        7.7768744 magnetization

 Broyden mixing:
  rms(total) = 0.25740E+01    rms(broyden)= 0.25739E+01
  rms(prec ) = 0.29640E+01
  weight for this iteration     100.00

[...]

 eigenvalues of (default mixing * dielectric matrix)
  average eigenvalue GAMMA=   1.8114
  1.8114

[...]

 eigenvalue-minimisations  : 20640
 total energy-change (2. order) : 0.1453263E-06  (-0.6394327E-08)
 number of electron      22.0000104 magnetization
 augmentation part        8.0600904 magnetization

 Broyden mixing:
  rms(total) = 0.10301E-03    rms(broyden)= 0.10300E-03
  rms(prec ) = 0.12453E-03
  weight for this iteration     100.00

 eigenvalues of (default mixing * dielectric matrix)
  average eigenvalue GAMMA=   1.8533
  2.6219  2.4541  2.4541  1.6126  1.0029  0.9738

[...]

--------------------------------------- Iteration      1(  12)  ---------------------------------------

 BZINTS: Fermi energy:  4.838643; 22.000000 electrons
         Band energy:-272.840416;  BLOECHL correction: -0.034483

 eigenvalue-minimisations  : 11880
 total energy-change (2. order) :-0.2601882E-07  (-0.6215140E-09)
 number of electron      22.0000104 magnetization
 augmentation part        8.0600904 magnetization

 Free energy of the ion-electron system (eV)
  alpha Z        PSCENC =       249.60523850
  Ewald energy   TEWEN  =     -1921.02116984
  -Hartree energ DENC   =      -240.24843808
  -exchange      EXHF   =         0.00000000
  -V(xc)+E(xc)   XCENC  =        52.87383082
  PAW double counting   =      2998.19438252    -2981.56127206
  entropy T*S    EENTRO =         0.00000000
  eigenvalues    EBANDS =      -272.84041638
  atomic energy  EATOM  =      2092.72627849
  Solvation  Ediel_sol  =         0.00000000
  free energy    TOTEN  =       -22.27156603 eV

  energy without entropy =      -22.27156603  energy(sigma->0) =      -22.27156603

 average (electrostatic) potential at core
  the test charge radii are     1.2165
  (the norm of the test charge is              1.0000)
       1 -34.9057       2 -34.9057

 E-fermi :   4.8386     XC(G=0): -12.6479     alpha+bet :-12.9149

 k-point     1 :       0.0250    0.0250    0.0250
  band No.  band energies     occupation
      1     -25.6390      2.00000
      2     -25.6390      2.00000
      3     -25.6268      2.00000
      4     -24.7067      2.00000
      5     -24.6929      2.00000
      6     -24.6929      2.00000
      7      -1.0487      2.00000
      8       1.1067      2.00000
      9       1.1067      2.00000
     10       5.1502      0.00000
     11       5.1502      0.00000
     12       5.2119      0.00000
     13       8.0535      0.00000
     14       8.0535      0.00000
     15      10.2076      0.00000
     16      10.4044      0.00000
     17      10.4044      0.00000
     18      14.2778      0.00000
     19      14.2778      0.00000
     20      14.3722      0.00000
     21      20.4306      0.00000
     22      20.4836      0.00000
     23      20.4836      0.00000
     24      23.4815      0.00000
     25      25.8884      0.00000
     26      25.8884      0.00000
     27      30.1114      0.00000
     28      30.2031      0.00000
     29      30.2031      0.00000
     30      34.0337      0.00000
     31      34.5695      0.00000
     32      34.5695      0.00000
     33      40.8096      0.00000
     34      40.9935      0.00000
     35      40.9935      0.00000
     36      41.4497      0.00000
     37      41.6270      0.00000
     38      41.9873      0.00000
     39      41.9873      0.00000
     40      42.2149      0.00000

[...]

 k-point   220 :       0.4750    0.4750    0.4750
  band No.  band energies     occupation
      1     -25.4990      2.00000
      2     -25.4465      2.00000
      3     -25.4465      2.00000
      4     -25.3391      2.00000
      5     -25.3391      2.00000
      6     -25.2855      2.00000
      7       3.4857      2.00000
      8       3.6259      2.00000
      9       3.6259      2.00000
     10       3.8605      2.00000
     11       3.8605      2.00000
     12       3.9491      2.00000
     13       8.9054      0.00000
     14       8.9054      0.00000
     15       8.9057      0.00000
     16       8.9057      0.00000
     17      14.5316      0.00000
     18      14.5421      0.00000
     19      16.4411      0.00000
     20      16.7356      0.00000
     21      16.7356      0.00000
     22      17.3258      0.00000
     23      17.3258      0.00000
     24      17.6330      0.00000
     25      29.6609      0.00000
     26      30.0946      0.00000
     27      30.0946      0.00000
     28      31.1154      0.00000
     29      31.1154      0.00000
     30      31.7032      0.00000
     31      33.1493      0.00000
     32      33.6447      0.00000
     33      33.6447      0.00000
     34      34.3802      0.00000
     35      34.3802      0.00000
     36      34.5971      0.00000
     37      42.0487      0.00000
     38      42.0490      0.00000
     39      47.4595      0.00000
     40      47.6122      0.00000

 soft charge-density along one line, spin component           1
         0         1         2         3         4         5         6         7         8         9
 total charge-density along one line

------------------------ aborting loop because EDIFF is reached ----------------------------------------

  FORCE on cell =-STRESS in cart. coord.  units (eV):
  Direction    XX          YY          ZZ          XY          YZ          ZX
  Alpha Z   249.60524   249.60524   249.60524
  Ewald    -640.34034  -640.34034  -640.34034    -0.00000     0.00000    -0.00000
  Hartree    80.08281    80.08281    80.08281    -0.00000    -0.00000    -0.00000
  E(xc)     -93.77031   -93.77031   -93.77031     0.00000    -0.00000    -0.00000
  Local     205.55876   205.55876   205.55876     0.00000    -0.00000     0.00000
  n-local   -89.26472   -84.35336   -77.71541     2.22769    -0.97145     0.40373
  augment    52.34903    52.34903    52.34903     0.00000     0.00000     0.00000
  Kinetic   219.38580   225.01777   241.90310     3.34996    -2.10660     1.18685
  Fock        0.00000     0.00000     0.00000     0.00000     0.00000     0.00000
  Total      -1.52375    -1.52375    -1.52375     0.00000     0.00000    -0.00000
  in kB     -67.88398   -67.88398   -67.88398     0.00000     0.00000    -0.00000

 VOLUME and BASIS-vectors are now :
  energy-cutoff  :      300.00
  volume of cell :       35.96
      direct lattice vectors                 reciprocal lattice vectors
     3.300800000  0.000000000  0.000000000     0.302956859  0.000000000  0.000000000
     0.000000000  3.300800000  0.000000000     0.000000000  0.302956859  0.000000000
     0.000000000  0.000000000  3.300800000     0.000000000  0.000000000  0.302956859

  length of vectors
     3.300800000  3.300800000  3.300800000     0.302956859  0.302956859  0.302956859

 FORCES acting on ions
    electron-ion (+dipol)            ewald-force                    non-local-force                 convergence-correction
   -.238E-13 -.225E-13 -.161E-13   0.268E-14 -.614E-14 -.437E-14   0.444E-26 -.242E-26 0.323E-26   0.181E-13 0.225E-14 -.351E-14
   0.115E-12 0.124E-12 0.125E-12   -.201E-14 0.363E-14 0.345E-14   0.000E+00 0.808E-27 0.000E+00   -.416E-13 -.417E-13 -.293E-13
   0.909E-13 0.102E-12 0.109E-12   0.666E-15 -.251E-14 -.919E-15   0.444E-26 -.162E-26 0.323E-26   -.235E-13 -.395E-13 -.328E-13

 POSITION                                       TOTAL-FORCE (eV/Angst)
      0.00000      0.00000      0.00000         0.000000      0.000000     -0.000000
      1.65040      1.65040      1.65040         0.000000      0.000000      0.000000
    total drift:                                0.000000      0.000000      0.000000

  FREE ENERGIE OF THE ION-ELECTRON SYSTEM (eV)
  free  energy   TOTEN  =       -22.27156603 eV

  energy  without entropy=      -22.27156603  energy(sigma->0) =      -22.27156603

 writing wavefunctions
 BZINTS: Fermi energy:  4.838643; 22.000000 electrons
         Band energy:-272.840416;  BLOECHL correction: -0.034483