 vasp.5.4.4.18Apr17-6-g9f103f2a35 (build May 20 2018 16:52:39) complex

 executed on             LinuxIFC date 2022.10.20  15:21:58

 INCAR:
 POTCAR:    PAW Al
 POTCAR:    PAW Al
   VRHFIN =Al: s2p1

   TITEL  = PAW Al
   POMASS =   26.982; ZVAL   =    3.000    mass and valenz
   ENMAX  =  240.437; ENMIN  =  180.327 eV
   QCUT   =   -4.204; QGAM   =    8.408    optimization parameters

   Description
     l     E      TYP  RCUT    TYP  RCUT
     0   .000     23  1.900
     0   .000     23  1.900
     1   .000     23  1.900
     1  1.000     23  1.900
     2   .000      7  1.900

  PAW Al                                :

 POSCAR: Al fcc
  positions in direct lattice
 exchange correlation table for  LEXCH =        7
   RHO(1)=    0.500       N(1)  =     2000
   RHO(2)=  100.500       N(2)  =     4000

 ion  position               nearest neighbor table
   1  0.000  0.000  0.000-

  LATTYP: Found a face centered cubic cell.
 ALAT       =     4.0500000000

  Lattice vectors:

 A1 = (   2.0250000000,   2.0250000000,   0.0000000000)
 A2 = (   0.0000000000,   2.0250000000,   2.0250000000)
 A3 = (   2.0250000000,   0.0000000000,   2.0250000000)

Analysis of symmetry for initial positions (statically):
 Subroutine PRICEL returns:
 Original cell was already a primitive cell.

 Routine SETGRP: Setting up the symmetry group for a
 face centered cubic supercell.

 Subroutine GETGRP returns: Found 48 space group operations
 (whereof 48 operations were pure point group operations)
 out of a pool of 48 trial point group operations.

The static configuration has the point symmetry O_h .

Analysis of symmetry for dynamics (positions and initial velocities):
 Subroutine PRICEL returns:
 Original cell was already a primitive cell.

 Routine SETGRP: Setting up the symmetry group for a
 face centered cubic supercell.

 Subroutine GETGRP returns: Found 48 space group operations
 (whereof 48 operations were pure point group operations)
 out of a pool of 48 trial point group operations.

The dynamic configuration has the point symmetry O_h .

 Subroutine INISYM returns: Found 48 space group operations
 (whereof 48 operations are pure point group operations),
 and found     1 'primitive' translations

 KPOINTS: 30x30x30

Automatic generation of k-mesh.
Space group operators:
 irot       det(A)        alpha          n_x          n_y          n_z        tau_x        tau_y        tau_z
    1     1.000000     0.000001     1.000000     0.000000     0.000000     0.000000     0.000000     0.000000
    2    -1.000000     0.000001     1.000000     0.000000     0.000000     0.000000     0.000000     0.000000
    3     1.000000   120.000000    -0.577350    -0.577350    -0.577350     0.000000     0.000000     0.000000
    4    -1.000000   120.000000    -0.577350    -0.577350    -0.577350     0.000000     0.000000     0.000000
    5     1.000000   120.000000     0.577350     0.577350     0.577350     0.000000     0.000000     0.000000
    6    -1.000000   120.000000     0.577350     0.577350     0.577350     0.000000     0.000000     0.000000
    7     1.000000    90.000000     0.000000    -1.000000     0.000000     0.000000     0.000000     0.000000
    8    -1.000000    90.000000     0.000000    -1.000000     0.000000     0.000000     0.000000     0.000000
    9     1.000000   180.000000     0.707107     0.707107     0.000000     0.000000     0.000000     0.000000
   10    -1.000000   180.000000     0.707107     0.707107     0.000000     0.000000     0.000000     0.000000
   11     1.000000    90.000000     1.000000     0.000000     0.000000     0.000000     0.000000     0.000000
   12    -1.000000    90.000000     1.000000     0.000000     0.000000     0.000000     0.000000     0.000000
   13     1.000000   180.000000     0.000000     1.000000     0.000000     0.000000     0.000000     0.000000
   14    -1.000000   180.000000     0.000000     1.000000     0.000000     0.000000     0.000000     0.000000
   15     1.000000   120.000000     0.577350     0.577350    -0.577350     0.000000     0.000000     0.000000
   16    -1.000000   120.000000     0.577350     0.577350    -0.577350     0.000000     0.000000     0.000000
   17     1.000000   120.000000     0.577350    -0.577350    -0.577350     0.000000     0.000000     0.000000
   18    -1.000000   120.000000     0.577350    -0.577350    -0.577350     0.000000     0.000000     0.000000
   19     1.000000    90.000000     0.000000     1.000000     0.000000     0.000000     0.000000     0.000000
   20    -1.000000    90.000000     0.000000     1.000000     0.000000     0.000000     0.000000     0.000000
   21     1.000000    90.000000     0.000000     0.000000    -1.000000     0.000000     0.000000     0.000000
   22    -1.000000    90.000000     0.000000     0.000000    -1.000000     0.000000     0.000000     0.000000
   23     1.000000   180.000000     0.000000     0.707107     0.707107     0.000000     0.000000     0.000000
   24    -1.000000   180.000000     0.000000     0.707107     0.707107     0.000000     0.000000     0.000000
   25     1.000000   120.000000    -0.577350     0.577350     0.577350     0.000000     0.000000     0.000000
   26    -1.000000   120.000000    -0.577350     0.577350     0.577350     0.000000     0.000000     0.000000
   27     1.000000   120.000000    -0.577350     0.577350    -0.577350     0.000000     0.000000     0.000000
   28    -1.000000   120.000000    -0.577350     0.577350    -0.577350     0.000000     0.000000     0.000000
   29     1.000000   180.000000     0.000000     0.000000     1.000000     0.000000     0.000000     0.000000
   30    -1.000000   180.000000     0.000000     0.000000     1.000000     0.000000     0.000000     0.000000
   31     1.000000    90.000000    -1.000000     0.000000     0.000000     0.000000     0.000000     0.000000
   32    -1.000000    90.000000    -1.000000     0.000000     0.000000     0.000000     0.000000     0.000000
   33     1.000000   180.000000     0.707107     0.000000     0.707107     0.000000     0.000000     0.000000
   34    -1.000000   180.000000     0.707107     0.000000     0.707107     0.000000     0.000000     0.000000
   35     1.000000    90.000000     0.000000     0.000000     1.000000     0.000000     0.000000     0.000000
   36    -1.000000    90.000000     0.000000     0.000000     1.000000     0.000000     0.000000     0.000000
   37     1.000000   120.000000    -0.577350    -0.577350     0.577350     0.000000     0.000000     0.000000
   38    -1.000000   120.000000    -0.577350    -0.577350     0.577350     0.000000     0.000000     0.000000
   39     1.000000   180.000000     1.000000     0.000000     0.000000     0.000000     0.000000     0.000000
   40    -1.000000   180.000000     1.000000     0.000000     0.000000     0.000000     0.000000     0.000000
   41     1.000000   120.000000     0.577350    -0.577350     0.577350     0.000000     0.000000     0.000000
   42    -1.000000   120.000000     0.577350    -0.577350     0.577350     0.000000     0.000000     0.000000
   43     1.000000   180.000000     0.707107    -0.707107     0.000000     0.000000     0.000000     0.000000
   44    -1.000000   180.000000     0.707107    -0.707107     0.000000     0.000000     0.000000     0.000000
   45     1.000000   180.000000     0.707107     0.000000    -0.707107     0.000000     0.000000     0.000000
   46    -1.000000   180.000000     0.707107     0.000000    -0.707107     0.000000     0.000000     0.000000
   47     1.000000   180.000000     0.000000    -0.707107     0.707107     0.000000     0.000000     0.000000
   48    -1.000000   180.000000     0.000000    -0.707107     0.707107     0.000000     0.000000     0.000000

 Subroutine IBZKPT returns following result:

 Found   2480 irreducible k-points:

 Following reciprocal coordinates:
            Coordinates               Weight
  0.016667  0.016667  0.016667     96.000000
  0.050000  0.016667  0.016667    288.000000
  0.083333  0.016667  0.016667    288.000000
  0.116667  0.016667  0.016667    288.000000
  0.150000  0.016667  0.016667    288.000000
  0.183333  0.016667  0.016667    288.000000
  0.216667  0.016667  0.016667    288.000000
  0.250000  0.016667  0.016667    288.000000
  0.283333  0.016667  0.016667    288.000000
  0.316667  0.016667  0.016667    288.000000
  0.350000  0.016667  0.016667    288.000000
  0.383333  0.016667  0.016667    288.000000
  0.416667  0.016667  0.016667    288.000000
  0.450000  0.016667  0.016667    288.000000
  0.483333  0.016667  0.016667    288.000000
 -0.483333  0.016667  0.016667    288.000000
 -0.450000  0.016667  0.016667    288.000000
 -0.416667  0.016667  0.016667    288.000000
 -0.383333  0.016667  0.016667    288.000000
 -0.350000  0.016667  0.016667    288.000000
 -0.316667  0.016667  0.016667    288.000000
 -0.283333  0.016667  0.016667    288.000000
 -0.250000  0.016667  0.016667    288.000000
 -0.216667  0.016667  0.016667    288.000000
 -0.183333  0.016667  0.016667    288.000000
 -0.150000  0.016667  0.016667    288.000000
 -0.116667  0.016667  0.016667    288.000000
 -0.083333  0.016667  0.016667    288.000000
 -0.050000  0.016667  0.016667    288.000000
 -0.016667  0.016667  0.016667    288.000000
  0.050000  0.050000  0.016667    288.000000
  0.083333  0.050000  0.016667    576.000000
  0.116667  0.050000  0.016667    576.000000
  0.150000  0.050000  0.016667    576.000000
  0.183333  0.050000  0.016667    576.000000
  0.216667  0.050000  0.016667    576.000000
  0.250000  0.050000  0.016667    576.000000
  0.283333  0.050000  0.016667    576.000000
  0.316667  0.050000  0.016667    576.000000
  0.350000  0.050000  0.016667    576.000000
  0.383333  0.050000  0.016667    576.000000
  0.416667  0.050000  0.016667    576.000000
  0.450000  0.050000  0.016667    576.000000
  0.483333  0.050000  0.016667    576.000000
 -0.483333  0.050000  0.016667    576.000000
 -0.450000  0.050000  0.016667    576.000000
 -0.416667  0.050000  0.016667    576.000000
 -0.383333  0.050000  0.016667    576.000000
 -0.350000  0.050000  0.016667    576.000000
 -0.316667  0.050000  0.016667    576.000000
 -0.283333  0.050000  0.016667    576.000000
 -0.250000  0.050000  0.016667    576.000000
 -0.216667  0.050000  0.016667    576.000000
 -0.183333  0.050000  0.016667    576.000000
 -0.150000  0.050000  0.016667    576.000000
 -0.116667  0.050000  0.016667    576.000000
 -0.083333  0.050000  0.016667    576.000000
 -0.050000  0.050000  0.016667    576.000000
 -0.016667  0.050000  0.016667    576.000000
  0.083333  0.083333  0.016667    288.000000
[...]
 -0.450000  0.483333  0.416667    576.000000
 -0.416667  0.483333  0.416667    576.000000
 -0.483333 -0.483333  0.416667    288.000000
 -0.450000 -0.483333  0.416667    576.000000
 -0.450000 -0.450000  0.416667    288.000000
  0.450000  0.450000  0.450000     96.000000
  0.483333  0.450000  0.450000    288.000000
 -0.483333  0.450000  0.450000    288.000000
 -0.450000  0.450000  0.450000    288.000000
  0.483333  0.483333  0.450000    288.000000
 -0.483333  0.483333  0.450000    576.000000
 -0.450000  0.483333  0.450000    576.000000
 -0.483333 -0.483333  0.450000    288.000000
  0.483333  0.483333  0.483333     96.000000
[...]
 k-point 56 :  -0.1167 0.0500 0.0167  plane waves:     147
 k-point 57 :  -0.0833 0.0500 0.0167  plane waves:     147
 k-point 58 :  -0.0500 0.0500 0.0167  plane waves:     145
 k-point 59 :  -0.0167 0.0500 0.0167  plane waves:     140
 k-point 60 :   0.0833 0.0833 0.0167  plane waves:     144
[...]
 k-point 85 :  -0.0833 0.0833 0.0167  plane waves:     147
 k-point 86 :  -0.0500 0.0833 0.0167  plane waves:     147
 k-point 87 :  -0.0167 0.0833 0.0167  plane waves:     146
 k-point 88 :   0.1167 0.1167 0.0167  plane waves:     145
 k-point 89 :   0.1500 0.1167 0.0167  plane waves:     146
 k-point 90 :   0.1833 0.1167 0.0167  plane waves:     146
 k-point 91 :   0.2167 0.1167 0.0167  plane waves:     143
 k-point 92 :   0.2500 0.1167 0.0167  plane waves:     143
 k-point 93 :   0.2833 0.1167 0.0167  plane waves:     144
 k-point 94 :   0.3167 0.1167 0.0167  plane waves:     143
 k-point 95 :   0.3500 0.1167 0.0167  plane waves:     144
 k-point 96 :   0.3833 0.1167 0.0167  plane waves:     144
 k-point 97 :   0.4167 0.1167 0.0167  plane waves:     146
 k-point 98 :   0.4500 0.1167 0.0167  plane waves:     143
 k-point 99 :   0.4833 0.1167 0.0167  plane waves:     142
 k-point ** :  -0.4833 0.1167 0.0167  plane waves:     138
 k-point ** :  -0.4500 0.1167 0.0167  plane waves:     140
 k-point ** :  -0.4167 0.1167 0.0167  plane waves:     141
 k-point ** :  -0.3833 0.1167 0.0167  plane waves:     142
 k-point ** :  -0.3500 0.1167 0.0167  plane waves:     143
 k-point ** :  -0.3167 0.1167 0.0167  plane waves:     144
 k-point ** :  -0.2833 0.1167 0.0167  plane waves:     145
 k-point ** :  -0.2500 0.1167 0.0167  plane waves:     145
 k-point ** :  -0.2167 0.1167 0.0167  plane waves:     144
 k-point ** :  -0.1833 0.1167 0.0167  plane waves:     143
 k-point ** :  -0.1500 0.1167 0.0167  plane waves:     143
 k-point ** :  -0.1167 0.1167 0.0167  plane waves:     144
 k-point ** :  -0.0833 0.1167 0.0167  plane waves:     144
 k-point ** :  -0.0500 0.1167 0.0167  plane waves:     147
 k-point ** :  -0.0167 0.1167 0.0167  plane waves:     148
 k-point ** :   0.1500 0.1500 0.0167  plane waves:     142
 k-point ** :   0.1833 0.1500 0.0167  plane waves:     144
 k-point ** :   0.2167 0.1500 0.0167  plane waves:     143
 k-point ** :   0.2500 0.1500 0.0167  plane waves:     142
 k-point ** :   0.2833 0.1500 0.0167  plane waves:     141
 k-point ** :   0.3167 0.1500 0.0167  plane waves:     141
 k-point ** :   0.3500 0.1500 0.0167  plane waves:     142
 k-point ** :   0.3833 0.1500 0.0167  plane waves:     142
 k-point ** :   0.4167 0.1500 0.0167  plane waves:     145
 k-point ** :   0.4500 0.1500 0.0167  plane waves:     143
 k-point ** :   0.4833 0.1500 0.0167  plane waves:     143
 k-point ** :  -0.4833 0.1500 0.0167  plane waves:     139
 k-point ** :  -0.4500 0.1500 0.0167  plane waves:     140
 k-point ** :  -0.4167 0.1500 0.0167  plane waves:     141
 k-point ** :  -0.3833 0.1500 0.0167  plane waves:     139
 k-point ** :  -0.3500 0.1500 0.0167  plane waves:     141
 k-point ** :  -0.3167 0.1500 0.0167  plane waves:     144
 k-point ** :  -0.2833 0.1500 0.0167  plane waves:     143
 k-point ** :  -0.2500 0.1500 0.0167  plane waves:     143
 k-point ** :  -0.2167 0.1500 0.0167  plane waves:     141
 k-point ** :  -0.1833 0.1500 0.0167  plane waves:     142
 k-point ** :  -0.1500 0.1500 0.0167  plane waves:     143
 k-point ** :  -0.1167 0.1500 0.0167  plane waves:     143
 k-point ** :  -0.0833 0.1500 0.0167  plane waves:     143
 k-point ** :  -0.0500 0.1500 0.0167  plane waves:     145
 k-point ** :  -0.0167 0.1500 0.0167  plane waves:     148
 k-point ** :   0.1833 0.1833 0.0167  plane waves:     141
 k-point ** :   0.2167 0.1833 0.0167  plane waves:     144
 k-point ** :   0.2500 0.1833 0.0167  plane waves:     142
 k-point ** :   0.2833 0.1833 0.0167  plane waves:     141
 k-point ** :   0.3167 0.1833 0.0167  plane waves:     141
 k-point ** :   0.3500 0.1833 0.0167  plane waves:     140
 k-point ** :   0.3833 0.1833 0.0167  plane waves:     142
 k-point ** :   0.4167 0.1833 0.0167  plane waves:     144
 k-point ** :   0.4500 0.1833 0.0167  plane waves:     142
 k-point ** :   0.4833 0.1833 0.0167  plane waves:     142
 k-point ** :  -0.4833 0.1833 0.0167  plane waves:     140
 k-point ** :  -0.4500 0.1833 0.0167  plane waves:     138
 k-point ** :  -0.4167 0.1833 0.0167  plane waves:     140
 k-point ** :  -0.3833 0.1833 0.0167  plane waves:     138
 k-point ** :  -0.3500 0.1833 0.0167  plane waves:     140
 k-point ** :  -0.3167 0.1833 0.0167  plane waves:     141
 k-point ** :  -0.2833 0.1833 0.0167  plane waves:     142
 k-point ** :  -0.2500 0.1833 0.0167  plane waves:     141
 k-point ** :  -0.2167 0.1833 0.0167  plane waves:     142
[...]
 k-point ** :  -0.4500 0.4833 0.4167  plane waves:     139
 k-point ** :  -0.4167 0.4833 0.4167  plane waves:     141
 k-point ** :  -0.4833-0.4833 0.4167  plane waves:     139
 k-point ** :  -0.4500-0.4833 0.4167  plane waves:     141
 k-point ** :  -0.4500-0.4500 0.4167  plane waves:     141
 k-point ** :   0.4500 0.4500 0.4500  plane waves:     147
 k-point ** :   0.4833 0.4500 0.4500  plane waves:     144
 k-point ** :  -0.4833 0.4500 0.4500  plane waves:     142
 k-point ** :  -0.4500 0.4500 0.4500  plane waves:     138
 k-point ** :   0.4833 0.4833 0.4500  plane waves:     141
 k-point ** :  -0.4833 0.4833 0.4500  plane waves:     140
 k-point ** :  -0.4500 0.4833 0.4500  plane waves:     141
 k-point ** :  -0.4833-0.4833 0.4500  plane waves:     140
 k-point ** :   0.4833 0.4833 0.4833  plane waves:     138
 k-point ** :  -0.4833 0.4833 0.4833  plane waves:     138

 maximum and minimum number of plane-waves per node :       150      134

 maximum number of plane-waves:       150
 maximum index in each direction:
   IXMAX=    4   IYMAX=    4   IZMAX=    3
   IXMIN=   -4   IYMIN=   -4   IZMIN=   -4

 serial   3D FFT for wavefunctions
 parallel 3D FFT for charge:
    minimum data exchange during FFTs selected (reduces bandwidth)

 Broyden mixing: mesh for mixing (old mesh)
   NGX =  7   NGY =  7   NGZ =  7
  (NGX  = 24   NGY  = 24   NGZ  = 24)
  gives a total of    343 points

 initial charge density was supplied:
 charge density of overlapping atoms calculated
 number of electron       3.0000000 magnetization
 keeping initial charge density in first step

 Maximum index for augmentation-charges         3997 (set IRDMAX)

 First call to EWALD:  gamma=   0.695
 Maximum number of real-space cells 3x 3x 3
 Maximum number of reciprocal cells 3x 3x 3

--------------------------------------- Iteration      1(   1)  ---------------------------------------

 eigenvalue-minimisations  : 30920
 total energy-change (2. order) :-0.2983505E+01  (-0.5776086E+02)
 number of electron       3.0000000 magnetization
 augmentation part        3.0000000 magnetization

 Free energy of the ion-electron system (eV)
  alpha Z        PSCENC =        -0.15332662
  Ewald energy   TEWEN  =       -73.35670894
  -Hartree energ DENC   =        -0.10550201
  -exchange      EXHF   =         0.00000000
  -V(xc)+E(xc)   XCENC  =       -26.40556105
  PAW double counting   =        35.65910006       -3.60582523
  entropy T*S    EENTRO =        -0.00004771
  eigenvalues    EBANDS =        11.29635961
  atomic energy  EATOM  =        53.68800704
  Solvation  Ediel_sol  =         0.00000000
  free energy    TOTEN  =        -2.98350484 eV

  energy without entropy =       -2.98345713  energy(sigma->0) =       -2.98348894

[...]

 Broyden mixing:
  rms(total) = 0.90633E-01    rms(broyden)= 0.90627E-01
  rms(prec ) = 0.33929E+00
  weight for this iteration     100.00

[...]

 eigenvalue-minimisations  : 28135
 total energy-change (2. order) : 0.1146431E-01  (-0.1571926E-03)
 number of electron       3.0000000 magnetization
 augmentation part       -0.0381304 magnetization

[...]

 eigenvalues of (default mixing * dielectric matrix)
  average eigenvalue GAMMA=   2.6453
  2.6453

[...]

 eigenvalues of (default mixing * dielectric matrix)
  average eigenvalue GAMMA=   2.1346
  1.0045  2.6461  2.6461  2.2419

[...]

 average (electrostatic) potential at core
  the test charge radii are     1.0406
  (the norm of the test charge is              1.0000)
       1 -72.2921

 E-fermi :   7.9177     XC(G=0): -10.1852     alpha+bet :-14.7760

 k-point     1 :       0.0167    0.0167    0.0167
  band No.  band energies     occupation
      1      -3.1715      2.00000
      2      20.3124      0.00000
      3      20.5027      0.00000
      4      20.5027      0.00000
      5      21.9317      0.00000

[...]

 soft charge-density along one line, spin component           1
         0         1         2         3         4         5         6         7         8         9
 total charge-density along one line

------------------------ aborting loop because EDIFF is reached ----------------------------------------

  FORCE on cell =-STRESS in cart. coord.  units (eV):
  Direction    XX          YY          ZZ          XY          YZ          ZX
  Alpha Z    -0.15333    -0.15333    -0.15333
  Ewald     -24.45224   -24.45224   -24.45224     0.00000     0.00000    -0.00000
  Hartree     0.03545     0.03545     0.03545    -0.00000    -0.00000    -0.00000
  E(xc)      -8.64237    -8.64237    -8.64237     0.00001     0.00001     0.00001
  Local       0.18116     0.18116     0.18116    -0.00000    -0.00000    -0.00000
  n-local    18.85941    19.05679    19.36282    -0.25219     0.00015     0.24618
  augment    -1.02571    -1.02571    -1.02571     0.00000     0.00000     0.00000
  Kinetic    10.91519    21.10983    12.81774     4.20629    -0.00198    -4.14444
  Fock        0.00000     0.00000     0.00000     0.00000     0.00000     0.00000
  Total      -0.01645    -0.01645    -0.01645     0.00000    -0.00000     0.00000
  in kB      -1.58650    -1.58650    -1.58650     0.00000    -0.00000     0.00000

 VOLUME and BASIS-vectors are now :
  energy-cutoff  :      240.44
  volume of cell :       16.61
      direct lattice vectors                 reciprocal lattice vectors
     2.025000000  2.025000000  0.000000000     0.246913580  0.246913580 -0.246913580
     0.000000000  2.025000000  2.025000000    -0.246913580  0.246913580  0.246913580
     2.025000000  0.000000000  2.025000000     0.246913580 -0.246913580  0.246913580

[...]

 FORCES acting on ions
    electron-ion (+dipol)            ewald-force                    non-local-force                 convergence-correction
   -.388E-15 0.886E-15 0.131E-14   -.122E-15 -.249E-16 -.758E-16   -.517E-25 -.517E-25 -.517E-25   -.424E-17 0.182E-18 0.112E-17
   -.388E-15 0.886E-15 0.131E-14   -.122E-15 -.249E-16 -.758E-16   -.517E-25 -.517E-25 -.517E-25   -.424E-17 0.182E-18 0.112E-17

 POSITION                                       TOTAL-FORCE (eV/Angst)
      0.00000      0.00000      0.00000         0.000000      0.000000     -0.000000
    total drift:                               -0.000000      0.000000      0.000000

  FREE ENERGIE OF THE ION-ELECTRON SYSTEM (eV)
  free  energy   TOTEN  =        -3.68739743 eV

  energy  without entropy=       -3.68735552  energy(sigma->0) =       -3.68738346

[...]

 d Force = 0.0000000E+00[ 0.000E+00, 0.000E+00]  d Energy = 0.1840917E-04-0.184E-04
 d Force = 0.0000000E+00[ 0.000E+00, 0.000E+00]  d Ewald  = 0.5824390E-01-0.582E-01

 Steepest descent step on ions:
 trial-energy change:   -0.000018  1 .order   -0.000019   -0.000039    0.000001
  (g-gl).g = 0.391E-04      g.g   = 0.391E-04  gl.gl    = 0.000E+00
 g(Force)  = 0.160E-65   g(Stress)= 0.391E-04 ortho     = 0.000E+00
 gamma     =   0.00000
 trial     =   1.00000
 opt step  =   0.98516  (harmonic =   0.98516) maximal distance =0.00000000
 next E    =    -3.687417   (d E  =  -0.00002)

[...]

 eigenvalue-minimisations  : 15625
 total energy-change (2. order) : 0.1104947E-05  (-0.6423210E-07)
 number of electron       3.0000001 magnetization
 augmentation part       -0.0391325 magnetization

 Broyden mixing:
  rms(total) = 0.27360E-04    rms(broyden)= 0.27359E-04
  rms(prec ) = 0.85411E-04
  weight for this iteration     100.00

[...]

--------------------------------------- Iteration      3(   2)  ---------------------------------------

 eigenvalue-minimisations  : 12940
 total energy-change (2. order) :-0.2425743E-08  (-0.1894536E-08)
 number of electron       3.0000001 magnetization
 augmentation part       -0.0391325 magnetization

 Free energy of the ion-electron system (eV)
  alpha Z        PSCENC =        -0.15368669
  Ewald energy   TEWEN  =       -73.41408761
  -Hartree energ DENC   =        -0.10662710
  -exchange      EXHF   =         0.00000000
  -V(xc)+E(xc)   XCENC  =       -26.29079860
  PAW double counting   =        35.90681886       -3.87425279
  entropy T*S    EENTRO =        -0.00004200
  eigenvalues    EBANDS =        10.55725343
  atomic energy  EATOM  =        53.68800704
  Solvation  Ediel_sol  =         0.00000000
  free energy    TOTEN  =        -3.68741548 eV

  energy without entropy =       -3.68737347  energy(sigma->0) =       -3.68740147

 average (electrostatic) potential at core
  the test charge radii are     1.0406
  (the norm of the test charge is              1.0000)
       1 -72.2648

 E-fermi :   7.9423     XC(G=0): -10.1938     alpha+bet :-14.8107

[...]

 k-point  2480 :      -0.4833    0.4833    0.4833
  band No.  band energies     occupation
      1       3.3124      2.00000
      2       3.6543      2.00000
      3      18.3764      0.00000
      4      18.6968      0.00000
      5      19.7707      0.00000

 soft charge-density along one line, spin component           1
         0         1         2         3         4         5         6         7         8         9
 total charge-density along one line

------------------------ aborting loop because EDIFF is reached ----------------------------------------

  FORCE on cell =-STRESS in cart. coord.  units (eV):
  Direction    XX          YY          ZZ          XY          YZ          ZX
  Alpha Z    -0.15369    -0.15369    -0.15369
  Ewald     -24.47136   -24.47136   -24.47136    -0.00000     0.00000    -0.00000
  Hartree     0.03555     0.03555     0.03555    -0.00000    -0.00000    -0.00000
  E(xc)      -8.64852    -8.64852    -8.64852     0.00001     0.00001     0.00001
  Local       0.19155     0.19155     0.19155    -0.00000    -0.00000    -0.00000
  n-local    18.86678    19.06745    19.37251    -0.25326     0.00016     0.24721
  augment    -1.02431    -1.02431    -1.02431     0.00000     0.00000     0.00000
  Kinetic    10.93167    21.13902    12.83919     4.21238    -0.00197    -4.15070
  Fock        0.00000     0.00000     0.00000     0.00000     0.00000     0.00000
  Total       0.00142     0.00142     0.00142     0.00000     0.00000     0.00000
  in kB       0.13748     0.13748     0.13748     0.00000     0.00000     0.00000

 VOLUME and BASIS-vectors are now :
  energy-cutoff  :      240.44
  volume of cell :       16.57
      direct lattice vectors                 reciprocal lattice vectors
     2.023417309  2.023417309 -0.000000000     0.247106713  0.247106713 -0.247106713
     0.000000000  2.023417309  2.023417309    -0.247106713  0.247106713  0.247106713
     2.023417309 -0.000000000  2.023417309     0.247106713 -0.247106713  0.247106713

  length of vectors
     2.861544201  2.861544201  2.861544201     0.428001382  0.428001382  0.428001382

 FORCES acting on ions
    electron-ion (+dipol)            ewald-force                    non-local-force                 convergence-correction
   0.187E-14 0.147E-14 -.581E-15   0.250E-15 0.118E-15 -.123E-15   0.000E+00 -.516E-25 0.000E+00   0.544E-17 -.379E-17 -.340E-17
   0.187E-14 0.147E-14 -.581E-15   0.250E-15 0.118E-15 -.123E-15   0.000E+00 -.516E-25 0.000E+00   0.544E-17 -.379E-17 -.340E-17

 POSITION                                       TOTAL-FORCE (eV/Angst)
      0.00000      0.00000     -0.00000         0.000000      0.000000      0.000000
    total drift:                                0.000000      0.000000     -0.000000

  FREE ENERGIE OF THE ION-ELECTRON SYSTEM (eV)
  free  energy   TOTEN  =        -3.68741548 eV

  energy  without entropy=       -3.68737347  energy(sigma->0) =       -3.68740147

 d Force = 0.0000000E+00[ 0.000E+00, 0.000E+00]  d Energy =-0.3601482E-06 0.360E-06
 d Force = 0.0000000E+00[ 0.000E+00, 0.000E+00]  d Ewald  =-0.8652283E-03 0.865E-03

 reached required accuracy - stopping structural energy minimisation

volume of typ            1:    69.7 %

total charge

# of ion       s       p       d       tot
    1        0.804   0.834   0.175   1.814

orbital moment (x)

[...]

orbital moment (y)

[...]

orbital moment (z)

# of ion     s             p             d             tot
    1     0.000000E+00 -0.707785E-10  0.187796E-10 -0.519990E-10