 vasp.5.4.4.18Apr17-6-g9f103f2a35 (build May 20 2018 16:52:39) complex

 executed on             LinuxIFC date 2022.11.06  14:55:35

 INCAR:
 POTCAR:    PAW Ge
 POTCAR:    PAW Ge
   VRHFIN =Ge: s2p2

   TITEL  = PAW Ge
   POMASS =   72.610; ZVAL   =    4.000    mass and valenz
   ENMAX  =  173.845; ENMIN  =  130.384 eV
   QCUT   =   -3.575; QGAM   =    7.149    optimization parameters

   Description
     l     E      TYP  RCUT    TYP  RCUT
     0   .000     23  2.300
     0   .000     23  2.300
     1   .000     23  2.300
     1   .000     23  2.300
     2   .000     23  2.300
     3  -.100      7  2.300

  PAW Ge                                :

 POSCAR: Ge
  positions in direct lattice
  velocities in cartesian coordinates
 exchange correlation table for  LEXCH =        7
   RHO(1)=    0.500       N(1)  =     2000
   RHO(2)=  100.500       N(2)  =     4000

 ion  position               nearest neighbor table
   1  0.000  0.000  0.000-   2 2.50   2 2.50   2 2.50   2 2.50
   2  0.250  0.250  0.250-   1 2.50   1 2.50   1 2.50   1 2.50

  LATTYP: Found a face centered cubic cell.
 ALAT       =     5.7708962577

  Lattice vectors:

 A1 = (   0.0000000000,   2.8854481288,   2.8854481288)
 A2 = (   2.8854481288,   0.0000000000,   2.8854481288)
 A3 = (   2.8854481288,   2.8854481288,   0.0000000000)

Analysis of symmetry for initial positions (statically):
 Subroutine PRICEL returns:
 Original cell was already a primitive cell.

 Routine SETGRP: Setting up the symmetry group for a
 face centered cubic supercell.

 Subroutine GETGRP returns: Found 48 space group operations
 (whereof 24 operations were pure point group operations)
 out of a pool of 48 trial point group operations.

The static configuration has the point symmetry T_d .
 The point group associated with its full space group is O_h .

Analysis of symmetry for dynamics (positions and initial velocities):
 Subroutine PRICEL returns:
 Original cell was already a primitive cell.

 Routine SETGRP: Setting up the symmetry group for a
 face centered cubic supercell.

 Subroutine GETGRP returns: Found 48 space group operations
 (whereof 24 operations were pure point group operations)
 out of a pool of 48 trial point group operations.

The dynamic configuration has the point symmetry T_d .
 The point group associated with its full space group is O_h .

 Subroutine INISYM returns: Found 48 space group operations
 (whereof 24 operations are pure point group operations),
 and found     1 'primitive' translations

 KPOINTS: 20x20x20

Automatic generation of k-mesh.
Space group operators:
 irot       det(A)        alpha          n_x          n_y          n_z        tau_x        tau_y        tau_z
    1     1.000000     0.000001     1.000000     0.000000     0.000000     0.000000     0.000000     0.000000
    2     1.000000   120.000000    -0.577350    -0.577350    -0.577350     0.000000     0.000000     0.000000
    3     1.000000   120.000000     0.577350     0.577350     0.577350     0.000000     0.000000     0.000000
    4    -1.000000    90.000000     0.000000     0.000000    -1.000000     0.000000     0.000000     0.000000
    5    -1.000000   180.000000     0.000000     0.707107     0.707107     0.000000     0.000000     0.000000
    6    -1.000000    90.000000     0.000000     1.000000     0.000000     0.000000     0.000000     0.000000
    7     1.000000   180.000000     0.000000     0.000000     1.000000     0.000000     0.000000     0.000000
    8     1.000000   120.000000    -0.577350     0.577350     0.577350     0.000000     0.000000     0.000000
    9     1.000000   120.000000    -0.577350     0.577350    -0.577350     0.000000     0.000000     0.000000
   10    -1.000000    90.000000     0.000000     0.000000     1.000000     0.000000     0.000000     0.000000
   11    -1.000000    90.000000    -1.000000     0.000000     0.000000     0.000000     0.000000     0.000000
   12    -1.000000   180.000000     0.707107     0.000000     0.707107     0.000000     0.000000     0.000000
   13     1.000000   120.000000     0.577350    -0.577350     0.577350     0.000000     0.000000     0.000000
   14     1.000000   120.000000    -0.577350    -0.577350     0.577350     0.000000     0.000000     0.000000
   15     1.000000   180.000000     1.000000     0.000000     0.000000     0.000000     0.000000     0.000000
   16    -1.000000    90.000000     0.000000    -1.000000     0.000000     0.000000     0.000000     0.000000
   17    -1.000000   180.000000     0.707107     0.707107     0.000000     0.000000     0.000000     0.000000
   18    -1.000000    90.000000     1.000000     0.000000     0.000000     0.000000     0.000000     0.000000
   19     1.000000   120.000000     0.577350    -0.577350    -0.577350     0.000000     0.000000     0.000000
   20     1.000000   180.000000     0.000000     1.000000     0.000000     0.000000     0.000000     0.000000
   21     1.000000   120.000000     0.577350     0.577350    -0.577350     0.000000     0.000000     0.000000
   22    -1.000000   180.000000     0.000000    -0.707107     0.707107     0.000000     0.000000     0.000000
   23    -1.000000   180.000000     0.707107    -0.707107     0.000000     0.000000     0.000000     0.000000
   24    -1.000000   180.000000     0.707107     0.000000    -0.707107     0.000000     0.000000     0.000000
   25    -1.000000     0.000001     1.000000     0.000000     0.000000     0.250000     0.250000     0.250000
   26    -1.000000   120.000000    -0.577350    -0.577350    -0.577350     0.250000     0.250000     0.250000
   27    -1.000000   120.000000     0.577350     0.577350     0.577350     0.250000     0.250000     0.250000
   28     1.000000    90.000000     0.000000     0.000000    -1.000000     0.250000     0.250000     0.250000
   29     1.000000   180.000000     0.000000     0.707107     0.707107     0.250000     0.250000     0.250000
   30     1.000000    90.000000     0.000000     1.000000     0.000000     0.250000     0.250000     0.250000
   31    -1.000000   180.000000     0.000000     0.000000     1.000000     0.250000     0.250000     0.250000
   32    -1.000000   120.000000    -0.577350     0.577350     0.577350     0.250000     0.250000     0.250000
   33    -1.000000   120.000000    -0.577350     0.577350    -0.577350     0.250000     0.250000     0.250000
   34     1.000000    90.000000     0.000000     0.000000     1.000000     0.250000     0.250000     0.250000
   35     1.000000    90.000000    -1.000000     0.000000     0.000000     0.250000     0.250000     0.250000
   36     1.000000   180.000000     0.707107     0.000000     0.707107     0.250000     0.250000     0.250000
   37    -1.000000   120.000000     0.577350    -0.577350     0.577350     0.250000     0.250000     0.250000
   38    -1.000000   120.000000    -0.577350    -0.577350     0.577350     0.250000     0.250000     0.250000
   39    -1.000000   180.000000     1.000000     0.000000     0.000000     0.250000     0.250000     0.250000
   40     1.000000    90.000000     0.000000    -1.000000     0.000000     0.250000     0.250000     0.250000
   41     1.000000   180.000000     0.707107     0.707107     0.000000     0.250000     0.250000     0.250000
   42     1.000000    90.000000     1.000000     0.000000     0.000000     0.250000     0.250000     0.250000
   43    -1.000000   120.000000     0.577350    -0.577350    -0.577350     0.250000     0.250000     0.250000
   44    -1.000000   180.000000     0.000000     1.000000     0.000000     0.250000     0.250000     0.250000
   45    -1.000000   120.000000     0.577350     0.577350    -0.577350     0.250000     0.250000     0.250000
   46     1.000000   180.000000     0.000000    -0.707107     0.707107     0.250000     0.250000     0.250000
   47     1.000000   180.000000     0.707107    -0.707107     0.000000     0.250000     0.250000     0.250000
   48     1.000000   180.000000     0.707107     0.000000    -0.707107     0.250000     0.250000     0.250000

 Subroutine IBZKPT returns following result:

 Found    770 irreducible k-points:

 Following reciprocal coordinates:
            Coordinates               Weight
  0.025000  0.025000  0.025000     96.000000
  0.075000  0.025000  0.025000    288.000000
  0.125000  0.025000  0.025000    288.000000
  0.175000  0.025000  0.025000    288.000000
  0.225000  0.025000  0.025000    288.000000
  0.275000  0.025000  0.025000    288.000000
  0.325000  0.025000  0.025000    288.000000
  0.375000  0.025000  0.025000    288.000000
  0.425000  0.025000  0.025000    288.000000
  0.475000  0.025000  0.025000    288.000000
 -0.475000  0.025000  0.025000    288.000000
 -0.425000  0.025000  0.025000    288.000000
 -0.375000  0.025000  0.025000    288.000000
 -0.325000  0.025000  0.025000    288.000000
 -0.275000  0.025000  0.025000    288.000000
 -0.225000  0.025000  0.025000    288.000000
 -0.175000  0.025000  0.025000    288.000000
 -0.125000  0.025000  0.025000    288.000000
 -0.075000  0.025000  0.025000    288.000000
 -0.025000  0.025000  0.025000    288.000000
  0.075000  0.075000  0.025000    288.000000
  0.125000  0.075000  0.025000    576.000000
  0.175000  0.075000  0.025000    576.000000
  0.225000  0.075000  0.025000    576.000000
  0.275000  0.075000  0.025000    576.000000
  0.325000  0.075000  0.025000    576.000000
  0.375000  0.075000  0.025000    576.000000
  0.425000  0.075000  0.025000    576.000000
  0.475000  0.075000  0.025000    576.000000
 -0.475000  0.075000  0.025000    576.000000
 -0.425000  0.075000  0.025000    576.000000
 -0.375000  0.075000  0.025000    576.000000
 -0.325000  0.075000  0.025000    576.000000
 -0.275000  0.075000  0.025000    576.000000
 -0.225000  0.075000  0.025000    576.000000
 -0.175000  0.075000  0.025000    576.000000
 -0.125000  0.075000  0.025000    576.000000
 -0.075000  0.075000  0.025000    576.000000
 -0.025000  0.075000  0.025000    576.000000
  0.125000  0.125000  0.025000    288.000000
  0.175000  0.125000  0.025000    576.000000
  0.225000  0.125000  0.025000    576.000000
  0.275000  0.125000  0.025000    576.000000
  0.325000  0.125000  0.025000    576.000000
  0.375000  0.125000  0.025000    576.000000
  0.425000  0.125000  0.025000    576.000000
  0.475000  0.125000  0.025000    576.000000
 -0.475000  0.125000  0.025000    576.000000
 -0.425000  0.125000  0.025000    576.000000
 -0.375000  0.125000  0.025000    576.000000
 -0.325000  0.125000  0.025000    576.000000
 -0.275000  0.125000  0.025000    576.000000
 -0.225000  0.125000  0.025000    576.000000
 -0.175000  0.125000  0.025000    576.000000
 -0.125000  0.125000  0.025000    576.000000
 -0.075000  0.125000  0.025000    576.000000
 -0.025000  0.125000  0.025000    576.000000
  0.175000  0.175000  0.025000    288.000000
  0.225000  0.175000  0.025000    576.000000
  0.275000  0.175000  0.025000    576.000000
[...]
 -0.425000  0.475000  0.375000    576.000000
 -0.375000  0.475000  0.375000    576.000000
 -0.475000 -0.475000  0.375000    288.000000
 -0.425000 -0.475000  0.375000    576.000000
 -0.425000 -0.425000  0.375000    288.000000
  0.425000  0.425000  0.425000     96.000000
  0.475000  0.425000  0.425000    288.000000
 -0.475000  0.425000  0.425000    288.000000
[...]
 k-point 46 :   0.4250 0.1250 0.0250  plane waves:     250
 k-point 47 :   0.4750 0.1250 0.0250  plane waves:     252
 k-point 48 :  -0.4750 0.1250 0.0250  plane waves:     249
 k-point 49 :  -0.4250 0.1250 0.0250  plane waves:     251
 k-point 50 :  -0.3750 0.1250 0.0250  plane waves:     251
 k-point 51 :  -0.3250 0.1250 0.0250  plane waves:     253
 k-point 52 :  -0.2750 0.1250 0.0250  plane waves:     252
 k-point 53 :  -0.2250 0.1250 0.0250  plane waves:     254
 k-point 54 :  -0.1750 0.1250 0.0250  plane waves:     256
 k-point 55 :  -0.1250 0.1250 0.0250  plane waves:     254
 k-point 56 :  -0.0750 0.1250 0.0250  plane waves:     261
 k-point 57 :  -0.0250 0.1250 0.0250  plane waves:     264
 k-point 58 :   0.1750 0.1750 0.0250  plane waves:     254
 k-point 59 :   0.2250 0.1750 0.0250  plane waves:     250
 k-point 60 :   0.2750 0.1750 0.0250  plane waves:     248
[...]
 k-point 85 :  -0.2750 0.2250 0.0250  plane waves:     252
 k-point 86 :  -0.2250 0.2250 0.0250  plane waves:     253
 k-point 87 :  -0.1750 0.2250 0.0250  plane waves:     256
 k-point 88 :  -0.1250 0.2250 0.0250  plane waves:     255
 k-point 89 :  -0.0750 0.2250 0.0250  plane waves:     254
 k-point 90 :  -0.0250 0.2250 0.0250  plane waves:     255
 k-point 91 :   0.2750 0.2750 0.0250  plane waves:     253
 k-point 92 :   0.3250 0.2750 0.0250  plane waves:     250
 k-point 93 :   0.3750 0.2750 0.0250  plane waves:     250
 k-point 94 :   0.4250 0.2750 0.0250  plane waves:     247
 k-point 95 :   0.4750 0.2750 0.0250  plane waves:     247
 k-point 96 :  -0.4750 0.2750 0.0250  plane waves:     249
 k-point 97 :  -0.4250 0.2750 0.0250  plane waves:     248
 k-point 98 :  -0.3750 0.2750 0.0250  plane waves:     247
 k-point 99 :  -0.3250 0.2750 0.0250  plane waves:     248
 k-point ** :  -0.2750 0.2750 0.0250  plane waves:     251
 k-point ** :  -0.2250 0.2750 0.0250  plane waves:     252
 k-point ** :  -0.1750 0.2750 0.0250  plane waves:     254
 k-point ** :  -0.1250 0.2750 0.0250  plane waves:     254
 k-point ** :  -0.0750 0.2750 0.0250  plane waves:     252
 k-point ** :  -0.0250 0.2750 0.0250  plane waves:     253
 k-point ** :   0.3250 0.3250 0.0250  plane waves:     246
 k-point ** :   0.3750 0.3250 0.0250  plane waves:     246
 k-point ** :   0.4250 0.3250 0.0250  plane waves:     244
 k-point ** :   0.4750 0.3250 0.0250  plane waves:     246
 k-point ** :  -0.4750 0.3250 0.0250  plane waves:     247
 k-point ** :  -0.4250 0.3250 0.0250  plane waves:     249
 k-point ** :  -0.3750 0.3250 0.0250  plane waves:     248
 k-point ** :  -0.3250 0.3250 0.0250  plane waves:     248
 k-point ** :  -0.2750 0.3250 0.0250  plane waves:     248
 k-point ** :  -0.2250 0.3250 0.0250  plane waves:     250
 k-point ** :  -0.1750 0.3250 0.0250  plane waves:     252
 k-point ** :  -0.1250 0.3250 0.0250  plane waves:     252
 k-point ** :  -0.0750 0.3250 0.0250  plane waves:     251
 k-point ** :  -0.0250 0.3250 0.0250  plane waves:     255
 k-point ** :   0.3750 0.3750 0.0250  plane waves:     244
 k-point ** :   0.4250 0.3750 0.0250  plane waves:     246
 k-point ** :   0.4750 0.3750 0.0250  plane waves:     244
 k-point ** :  -0.4750 0.3750 0.0250  plane waves:     243
 k-point ** :  -0.4250 0.3750 0.0250  plane waves:     246
 k-point ** :  -0.3750 0.3750 0.0250  plane waves:     245
 k-point ** :  -0.3250 0.3750 0.0250  plane waves:     247
 k-point ** :  -0.2750 0.3750 0.0250  plane waves:     246
 k-point ** :  -0.2250 0.3750 0.0250  plane waves:     250
 k-point ** :  -0.1750 0.3750 0.0250  plane waves:     250
 k-point ** :  -0.1250 0.3750 0.0250  plane waves:     251
 k-point ** :  -0.0750 0.3750 0.0250  plane waves:     252
 k-point ** :  -0.0250 0.3750 0.0250  plane waves:     253
 k-point ** :   0.4250 0.4250 0.0250  plane waves:     244
 k-point ** :   0.4750 0.4250 0.0250  plane waves:     246
 k-point ** :  -0.4750 0.4250 0.0250  plane waves:     243
 k-point ** :  -0.4250 0.4250 0.0250  plane waves:     244
 k-point ** :  -0.3750 0.4250 0.0250  plane waves:     247
 k-point ** :  -0.3250 0.4250 0.0250  plane waves:     248
 k-point ** :  -0.2750 0.4250 0.0250  plane waves:     246
 k-point ** :  -0.2250 0.4250 0.0250  plane waves:     247
 k-point ** :  -0.1750 0.4250 0.0250  plane waves:     249
 k-point ** :  -0.1250 0.4250 0.0250  plane waves:     250
 k-point ** :  -0.0750 0.4250 0.0250  plane waves:     251
 k-point ** :  -0.0250 0.4250 0.0250  plane waves:     249
 k-point ** :   0.4750 0.4750 0.0250  plane waves:     248
 k-point ** :  -0.4750 0.4750 0.0250  plane waves:     247
 k-point ** :  -0.4250 0.4750 0.0250  plane waves:     246
 k-point ** :  -0.3750 0.4750 0.0250  plane waves:     243
 k-point ** :  -0.3250 0.4750 0.0250  plane waves:     246
 k-point ** :  -0.2750 0.4750 0.0250  plane waves:     250
 k-point ** :  -0.2250 0.4750 0.0250  plane waves:     249
 k-point ** :  -0.1750 0.4750 0.0250  plane waves:     250
 k-point ** :  -0.1250 0.4750 0.0250  plane waves:     250
 k-point ** :  -0.0750 0.4750 0.0250  plane waves:     252
 k-point ** :  -0.0250 0.4750 0.0250  plane waves:     251
 k-point ** :  -0.4750-0.4750 0.0250  plane waves:     252
 k-point ** :  -0.4250-0.4750 0.0250  plane waves:     245
 k-point ** :  -0.3750-0.4750 0.0250  plane waves:     242
 k-point ** :  -0.3250-0.4750 0.0250  plane waves:     244
[...]
 k-point ** :  -0.4250 0.4750 0.3750  plane waves:     250
 k-point ** :  -0.3750 0.4750 0.3750  plane waves:     248
 k-point ** :  -0.4750-0.4750 0.3750  plane waves:     248
 k-point ** :  -0.4250-0.4750 0.3750  plane waves:     248
 k-point ** :  -0.4250-0.4250 0.3750  plane waves:     246
 k-point ** :   0.4250 0.4250 0.4250  plane waves:     254
 k-point ** :   0.4750 0.4250 0.4250  plane waves:     252
 k-point ** :  -0.4750 0.4250 0.4250  plane waves:     252
 k-point ** :  -0.4250 0.4250 0.4250  plane waves:     248
 k-point ** :   0.4750 0.4750 0.4250  plane waves:     252
 k-point ** :  -0.4750 0.4750 0.4250  plane waves:     252
 k-point ** :  -0.4250 0.4750 0.4250  plane waves:     250
 k-point ** :  -0.4750-0.4750 0.4250  plane waves:     250
 k-point ** :   0.4750 0.4750 0.4750  plane waves:     242
 k-point ** :  -0.4750 0.4750 0.4750  plane waves:     252

 maximum and minimum number of plane-waves per node :       265      240

 maximum number of plane-waves:       265
 maximum index in each direction:
   IXMAX=    4   IYMAX=    4   IZMAX=    4
   IXMIN=   -4   IYMIN=   -4   IZMIN=   -4

 serial   3D FFT for wavefunctions
 parallel 3D FFT for charge:
    minimum data exchange during FFTs selected (reduces bandwidth)

 initial charge density was supplied:
 number of electron       8.0000037 magnetization
 keeping initial charge density in first step

 Maximum index for augmentation-charges         3043 (set IRDMAX)

 First call to EWALD:  gamma=   0.488
 Maximum number of real-space cells 3x 3x 3
 Maximum number of reciprocal cells 3x 3x 3

 BZINTS: Fermi energy:  5.788585;  8.000000 electrons
         Band energy:  -6.945060;  BLOECHL correction: -0.098965

 eigenvalue-minimisations  : 12576
 total energy-change (2. order) : 0.1526629E+01  (-0.1777542E+03)
 number of electron       8.0000037 magnetization
 augmentation part        8.0000037 magnetization

 Free energy of the ion-electron system (eV)
  alpha Z        PSCENC =        15.39048612
  Ewald energy   TEWEN  =      -215.06190459
  -Hartree energ DENC   =       -16.35353334
  -exchange      EXHF   =         0.00000000
  -V(xc)+E(xc)   XCENC  =       -14.97190882
  PAW double counting   =       102.44363816      -73.51176587
  entropy T*S    EENTRO =         0.00000000
  eigenvalues    EBANDS =        -6.94505996
  atomic energy  EATOM  =       210.53667696
  Solvation  Ediel_sol  =         0.00000000
  free energy    TOTEN  =         1.52662865 eV

  energy without entropy =        1.52662865  energy(sigma->0) =        1.52662865

--------------------------------------- Iteration      1(   2)  ---------------------------------------

[...]

 eigenvalue-minimisations  : 19184
 total energy-change (2. order) :-0.1043563E+02  (-0.1022960E+02)
 number of electron       8.0000037 magnetization
 augmentation part        8.0000037 magnetization

[...]

 average (electrostatic) potential at core
  the test charge radii are     1.1631
  (the norm of the test charge is              1.0000)
       1 -34.2668       2 -34.2668

 E-fermi :   3.2663     XC(G=0):  -8.9416     alpha+bet : -8.6759

 k-point     1 :       0.0250    0.0250    0.0250
  band No.  band energies     occupation
      1      -9.0595      2.00000
      2       2.5389      2.00000
      3       3.2527      2.00000
      4       3.2527      2.00000
      5       3.4487      0.00000
      6       5.8056      0.00000
      7       5.8056      0.00000
      8       5.8102      0.00000

[...]

 soft charge-density along one line, spin component           1
         0         1         2         3         4         5         6         7         8         9
 total charge-density along one line

------------------------ aborting loop because EDIFF is reached ----------------------------------------

 total charge

# of ion       s       p       d       tot
    1        1.140   1.219   0.054   2.413
    2        1.140   1.219   0.054   2.413
tot          2.280   2.438   0.108   4.826

  FORCE on cell =-STRESS in cart. coord.  units (eV):
  Direction    XX          YY          ZZ          XY          YZ          ZX
  Alpha Z    15.39049    15.39049    15.39049
  Ewald     -71.68733   -71.68733   -71.68733     0.00000     0.00000     0.00000
  Hartree     5.50259     5.50259     5.50259     0.00000     0.00000     0.00000
  E(xc)     -27.36786   -27.36786   -27.36786     0.00001     0.00001     0.00001
  Local     -23.84199   -23.84199   -23.84199     0.00024     0.00024     0.00024
  n-local    40.34582    41.82344    38.76229     0.55511    -0.56264     0.00396
  augment     1.83164     1.83164     1.83164    -0.00017    -0.00017    -0.00017
  Kinetic    61.31919    61.59127    57.03776     1.25281    -1.26662     0.00985
  Fock        0.00000     0.00000     0.00000     0.00000     0.00000     0.00000
  Total       0.12078     0.12078     0.12078     0.00000     0.00000     0.00000
  in kB       4.02761     4.02761     4.02761     0.00000     0.00000     0.00000

 VOLUME and BASIS-vectors are now :
  energy-cutoff  :      173.84
  volume of cell :       48.05
      direct lattice vectors                 reciprocal lattice vectors
     0.000000000  2.885448129  2.885448129    -0.173283309  0.173283309  0.173283309
     2.885448129  0.000000000  2.885448129     0.173283309 -0.173283309  0.173283309
     2.885448129  2.885448129  0.000000000     0.173283309  0.173283309 -0.173283309

[...]

 FORCES acting on ions
    electron-ion (+dipol)            ewald-force                    non-local-force                 convergence-correction
   -.498E-06 -.498E-06 -.498E-06   0.366E-15 -.691E-15 -.266E-15   -.243E-16 -.260E-16 -.259E-16   0.311E-08 0.311E-08 0.311E-08
   0.498E-06 0.498E-06 0.498E-06   -.348E-15 0.589E-15 0.119E-15   0.260E-16 0.260E-16 0.266E-16   -.311E-08 -.311E-08 -.311E-08
   -.331E-14 0.814E-14 0.125E-13   0.181E-16 -.102E-15 -.147E-15   0.173E-17 0.000E+00 0.718E-18   -.201E-15 -.160E-15 -.151E-15

 POSITION                                       TOTAL-FORCE (eV/Angst)
      0.00000      0.00000      0.00000         0.000000      0.000000      0.000000
      1.44272      1.44272      1.44272        -0.000000     -0.000000     -0.000000
    total drift:                               -0.000000      0.000000      0.000000

  FREE ENERGIE OF THE ION-ELECTRON SYSTEM (eV)
  free  energy   TOTEN  =        -9.03350552 eV

  energy  without entropy=       -9.03350552  energy(sigma->0) =       -9.03350552

[...]

 eigenvalue-minimisations  : 12576
 total energy-change (2. order) : 0.1526629E+01  (-0.1777542E+03)
 number of electron       8.0000037 magnetization
 augmentation part        8.0000037 magnetization

[...]

--------------------------------------- Iteration      1(   6)  ---------------------------------------

[...]

 eigenvalue-minimisations  : 17928
 total energy-change (2. order) :-0.1651870E-09  (-0.1651903E-09)
 number of electron       8.0000037 magnetization
 augmentation part        8.0000037 magnetization

 Free energy of the ion-electron system (eV)
  alpha Z        PSCENC =        15.39048612
  Ewald energy   TEWEN  =      -215.06190459
  -Hartree energ DENC   =       -16.35353334
  -exchange      EXHF   =         0.00000000
  -V(xc)+E(xc)   XCENC  =       -14.97190882
  PAW double counting   =       102.44363816      -73.51176587
  entropy T*S    EENTRO =         0.00000000
  eigenvalues    EBANDS =       -17.50519413
  atomic energy  EATOM  =       210.53667696
  Solvation  Ediel_sol  =         0.00000000
  free energy    TOTEN  =        -9.03350552 eV

  energy without entropy =       -9.03350552  energy(sigma->0) =       -9.03350552

 average (electrostatic) potential at core
  the test charge radii are     1.1631
  (the norm of the test charge is              1.0000)
       1 -34.2668       2 -34.2668

 E-fermi :   3.2663     XC(G=0):  -8.9416     alpha+bet : -8.6759

[...]

 k-point   770 :      -0.4750    0.4750    0.4750
  band No.  band energies     occupation
      1      -7.1053      2.00000
      2      -4.0696      2.00000
      3       1.5945      2.00000
      4       1.9123      2.00000
      5       3.6215      0.00000
      6       6.9171      0.00000
      7       7.0570      0.00000
      8      10.4536      0.00000

 soft charge-density along one line, spin component           1
         0         1         2         3         4         5         6         7         8         9
 total charge-density along one line

------------------------ aborting loop because EDIFF is reached ----------------------------------------

[...]

  FORCE on cell =-STRESS in cart. coord.  units (eV):
  Direction    XX          YY          ZZ          XY          YZ          ZX
  Alpha Z    15.39049    15.39049    15.39049
  Ewald     -71.68733   -71.68733   -71.68733     0.00000     0.00000     0.00000
  Hartree     5.50259     5.50259     5.50259     0.00000     0.00000     0.00000
  E(xc)     -27.36786   -27.36786   -27.36786     0.00001     0.00001     0.00001
  Local     -23.84199   -23.84199   -23.84199     0.00024     0.00024     0.00024
  n-local    40.34582    41.82344    38.76229     0.55511    -0.56264     0.00396
  augment     1.83164     1.83164     1.83164    -0.00017    -0.00017    -0.00017
  Kinetic    61.31919    61.59127    57.03776     1.25281    -1.26662     0.00985
  Fock        0.00000     0.00000     0.00000     0.00000     0.00000     0.00000
  Total       0.12078     0.12078     0.12078     0.00000     0.00000     0.00000
  in kB       4.02761     4.02761     4.02761     0.00000     0.00000     0.00000

 VOLUME and BASIS-vectors are now :
  energy-cutoff  :      173.84
  volume of cell :       48.05
      direct lattice vectors                 reciprocal lattice vectors
     0.000000000  2.885448129  2.885448129    -0.173283309  0.173283309  0.173283309
     2.885448129  0.000000000  2.885448129     0.173283309 -0.173283309  0.173283309
     2.885448129  2.885448129  0.000000000     0.173283309  0.173283309 -0.173283309

  length of vectors
     4.080639877  4.080639877  4.080639877     0.300135495  0.300135495  0.300135495

 FORCES acting on ions
    electron-ion (+dipol)            ewald-force                    non-local-force                 convergence-correction
   -.498E-06 -.498E-06 -.498E-06   0.366E-15 -.691E-15 -.266E-15   -.243E-16 -.260E-16 -.259E-16   0.311E-08 0.311E-08 0.311E-08
   0.498E-06 0.498E-06 0.498E-06   -.348E-15 0.589E-15 0.119E-15   0.260E-16 0.260E-16 0.266E-16   -.311E-08 -.311E-08 -.311E-08
   -.331E-14 0.814E-14 0.125E-13   0.181E-16 -.102E-15 -.147E-15   0.173E-17 0.000E+00 0.718E-18   -.201E-15 -.160E-15 -.151E-15

 POSITION                                       TOTAL-FORCE (eV/Angst)
      0.00000      0.00000      0.00000         0.000000      0.000000      0.000000
      1.44272      1.44272      1.44272        -0.000000     -0.000000     -0.000000
    total drift:                               -0.000000      0.000000      0.000000

  FREE ENERGIE OF THE ION-ELECTRON SYSTEM (eV)
  free  energy   TOTEN  =        -9.03350552 eV

  energy  without entropy=       -9.03350552  energy(sigma->0) =       -9.03350552

 total charge

# of ion       s       p       d       tot
    1        1.140   1.219   0.054   2.413
    2        1.140   1.219   0.054   2.413
tot          2.280   2.438   0.108   4.826

 BZINTS: Fermi energy:  3.266331;  8.000000 electrons
         Band energy: -17.505194;  BLOECHL correction:  0.000000