 vasp.5.4.4.18Apr17-6-g9f103f2a35 (build May 20 2018 16:52:39) complex

 executed on             LinuxIFC date 2022.09.19  17:23:48

 INCAR:
 POTCAR:   PAW_GGA Fe 03Mar1998
 POTCAR:   PAW_GGA Fe 03Mar1998
   VRHFIN =Fe:  d7 s1

   TITEL  = PAW_GGA Fe 03Mar1998
   POMASS =   55.847; ZVAL   =    8.000    mass and valenz
   ENMAX  =  267.907; ENMIN  =  200.930 eV
   QCUT   =   -4.437; QGAM   =    8.875    optimization parameters

   Description
     l     E      TYP  RCUT    TYP  RCUT
     2   .000     23  2.300
     2   .000     23  2.300
     0   .000     23  2.300
     0   .000     23  2.300
     1  -.200     23  2.300
     1   .000     23  2.300
     3   .000      7   .000

 PAW_GGA Fe 03Mar1998                   :

 POSCAR: Fe bulk bcc
  positions in direct lattice
 exchange correlation table for  LEXCH =        7
   RHO(1)=    0.500       N(1)  =     2000
   RHO(2)=  100.500       N(2)  =     4000

 ion  position               nearest neighbor table
   1  0.000  0.000  0.000-

  LATTYP: Found a body centered cubic cell.
 ALAT       =     2.8700000000

  Lattice vectors:

 A1 = (  -1.4350000000,   1.4350000000,   1.4350000000)
 A2 = (   1.4350000000,  -1.4350000000,   1.4350000000)
 A3 = (   1.4350000000,   1.4350000000,  -1.4350000000)

Analysis of symmetry for initial positions (statically):
 Subroutine PRICEL returns:
 Original cell was already a primitive cell.

 Routine SETGRP: Setting up the symmetry group for a
 body centered cubic supercell.

 Subroutine GETGRP returns: Found 48 space group operations
 (whereof 48 operations were pure point group operations)
 out of a pool of 48 trial point group operations.

The static configuration has the point symmetry O_h .

Analysis of symmetry for dynamics (positions and initial velocities):
 Subroutine PRICEL returns:
 Original cell was already a primitive cell.

[...]

The dynamic configuration has the point symmetry O_h .

Analysis of structural, dynamic, and magnetic symmetry:
 Subroutine PRICEL returns:
 Original cell was already a primitive cell.

 Routine SETGRP: Setting up the symmetry group for a
 body centered cubic supercell.

 Subroutine GETGRP returns: Found 48 space group operations
 (whereof 48 operations were pure point group operations)
 out of a pool of 48 trial point group operations.

The magnetic configuration has the point symmetry O_h .

 Subroutine INISYM returns: Found 48 space group operations
 (whereof 48 operations are pure point group operations),
 and found     1 'primitive' translations

 KPOINTS: 20x20x20

Automatic generation of k-mesh.
Space group operators:
 irot       det(A)        alpha          n_x          n_y          n_z        tau_x        tau_y        tau_z
    1     1.000000     0.000000     1.000000     0.000000     0.000000     0.000000     0.000000     0.000000
    2    -1.000000     0.000000     1.000000     0.000000     0.000000     0.000000     0.000000     0.000000
    3     1.000000   120.000000    -0.577350    -0.577350    -0.577350     0.000000     0.000000     0.000000
    4    -1.000000   120.000000    -0.577350    -0.577350    -0.577350     0.000000     0.000000     0.000000
    5     1.000000   120.000000     0.577350     0.577350     0.577350     0.000000     0.000000     0.000000
    6    -1.000000   120.000000     0.577350     0.577350     0.577350     0.000000     0.000000     0.000000
    7     1.000000    90.000000     0.000000     0.000000    -1.000000     0.000000     0.000000     0.000000
    8    -1.000000    90.000000     0.000000     0.000000    -1.000000     0.000000     0.000000     0.000000
    9     1.000000   180.000000     0.000000     0.707107     0.707107     0.000000     0.000000     0.000000
   10    -1.000000   180.000000     0.000000     0.707107     0.707107     0.000000     0.000000     0.000000
   11     1.000000    90.000000     0.000000     1.000000     0.000000     0.000000     0.000000     0.000000
   12    -1.000000    90.000000     0.000000     1.000000     0.000000     0.000000     0.000000     0.000000
   13     1.000000   180.000000     0.000000     0.000000     1.000000     0.000000     0.000000     0.000000
   14    -1.000000   180.000000     0.000000     0.000000     1.000000     0.000000     0.000000     0.000000
   15     1.000000   120.000000    -0.577350     0.577350     0.577350     0.000000     0.000000     0.000000
   16    -1.000000   120.000000    -0.577350     0.577350     0.577350     0.000000     0.000000     0.000000
   17     1.000000   120.000000    -0.577350     0.577350    -0.577350     0.000000     0.000000     0.000000
   18    -1.000000   120.000000    -0.577350     0.577350    -0.577350     0.000000     0.000000     0.000000
   19     1.000000    90.000000     0.000000     0.000000     1.000000     0.000000     0.000000     0.000000
   20    -1.000000    90.000000     0.000000     0.000000     1.000000     0.000000     0.000000     0.000000
   21     1.000000    90.000000    -1.000000     0.000000     0.000000     0.000000     0.000000     0.000000
   22    -1.000000    90.000000    -1.000000     0.000000     0.000000     0.000000     0.000000     0.000000
   23     1.000000   180.000000     0.707107     0.000000     0.707107     0.000000     0.000000     0.000000
   24    -1.000000   180.000000     0.707107     0.000000     0.707107     0.000000     0.000000     0.000000
   25     1.000000   120.000000     0.577350    -0.577350     0.577350     0.000000     0.000000     0.000000
   26    -1.000000   120.000000     0.577350    -0.577350     0.577350     0.000000     0.000000     0.000000
   27     1.000000   120.000000    -0.577350    -0.577350     0.577350     0.000000     0.000000     0.000000
   28    -1.000000   120.000000    -0.577350    -0.577350     0.577350     0.000000     0.000000     0.000000
   29     1.000000   180.000000     1.000000     0.000000     0.000000     0.000000     0.000000     0.000000
   30    -1.000000   180.000000     1.000000     0.000000     0.000000     0.000000     0.000000     0.000000
   31     1.000000    90.000000     0.000000    -1.000000     0.000000     0.000000     0.000000     0.000000
   32    -1.000000    90.000000     0.000000    -1.000000     0.000000     0.000000     0.000000     0.000000
   33     1.000000   180.000000     0.707107     0.707107     0.000000     0.000000     0.000000     0.000000
   34    -1.000000   180.000000     0.707107     0.707107     0.000000     0.000000     0.000000     0.000000
   35     1.000000    90.000000     1.000000     0.000000     0.000000     0.000000     0.000000     0.000000
   36    -1.000000    90.000000     1.000000     0.000000     0.000000     0.000000     0.000000     0.000000
   37     1.000000   120.000000     0.577350    -0.577350    -0.577350     0.000000     0.000000     0.000000
   38    -1.000000   120.000000     0.577350    -0.577350    -0.577350     0.000000     0.000000     0.000000
   39     1.000000   180.000000     0.000000     1.000000     0.000000     0.000000     0.000000     0.000000
   40    -1.000000   180.000000     0.000000     1.000000     0.000000     0.000000     0.000000     0.000000
   41     1.000000   120.000000     0.577350     0.577350    -0.577350     0.000000     0.000000     0.000000
   42    -1.000000   120.000000     0.577350     0.577350    -0.577350     0.000000     0.000000     0.000000
   43     1.000000   180.000000     0.000000    -0.707107     0.707107     0.000000     0.000000     0.000000
   44    -1.000000   180.000000     0.000000    -0.707107     0.707107     0.000000     0.000000     0.000000
   45     1.000000   180.000000     0.707107    -0.707107     0.000000     0.000000     0.000000     0.000000
   46    -1.000000   180.000000     0.707107    -0.707107     0.000000     0.000000     0.000000     0.000000
   47     1.000000   180.000000     0.707107     0.000000    -0.707107     0.000000     0.000000     0.000000
   48    -1.000000   180.000000     0.707107     0.000000    -0.707107     0.000000     0.000000     0.000000

 Subroutine IBZKPT returns following result:

 Found    250 irreducible k-points:

 Following reciprocal coordinates:
            Coordinates               Weight
  0.025000  0.025000  0.025000      8.000000
  0.075000  0.025000  0.025000     24.000000
  0.125000  0.025000  0.025000     24.000000
  0.175000  0.025000  0.025000     24.000000
  0.225000  0.025000  0.025000     24.000000
  0.275000  0.025000  0.025000     24.000000
  0.325000  0.025000  0.025000     24.000000
  0.375000  0.025000  0.025000     24.000000
  0.425000  0.025000  0.025000     24.000000
  0.475000  0.025000  0.025000     12.000000
 -0.025000  0.025000  0.025000      6.000000
  0.075000  0.075000  0.025000     24.000000
  0.125000  0.075000  0.025000     48.000000
  0.175000  0.075000  0.025000     48.000000
  0.225000  0.075000  0.025000     48.000000
  0.275000  0.075000  0.025000     48.000000
  0.325000  0.075000  0.025000     48.000000
  0.375000  0.075000  0.025000     48.000000
  0.425000  0.075000  0.025000     48.000000
 -0.075000  0.075000  0.025000     24.000000
  0.125000  0.125000  0.025000     24.000000
  0.175000  0.125000  0.025000     48.000000
  0.225000  0.125000  0.025000     48.000000
  0.275000  0.125000  0.025000     48.000000
  0.325000  0.125000  0.025000     48.000000
  0.375000  0.125000  0.025000     48.000000
  0.425000  0.125000  0.025000     24.000000
 -0.125000  0.125000  0.025000     24.000000
 -0.075000  0.125000  0.025000     24.000000
  0.175000  0.175000  0.025000     24.000000
  0.225000  0.175000  0.025000     48.000000
  0.275000  0.175000  0.025000     48.000000
  0.325000  0.175000  0.025000     48.000000
  0.375000  0.175000  0.025000     48.000000
 -0.175000  0.175000  0.025000     24.000000
 -0.125000  0.175000  0.025000     48.000000
  0.225000  0.225000  0.025000     24.000000
  0.275000  0.225000  0.025000     48.000000
  0.325000  0.225000  0.025000     48.000000
  0.375000  0.225000  0.025000     24.000000
 -0.225000  0.225000  0.025000     24.000000
 -0.175000  0.225000  0.025000     48.000000
 -0.125000  0.225000  0.025000     24.000000
  0.275000  0.275000  0.025000     24.000000
  0.325000  0.275000  0.025000     48.000000
 -0.275000  0.275000  0.025000     24.000000
 -0.225000  0.275000  0.025000     48.000000
 -0.175000  0.275000  0.025000     48.000000
  0.325000  0.325000  0.025000      8.000000
 -0.325000  0.325000  0.025000     24.000000
 -0.275000  0.325000  0.025000     48.000000
 -0.225000  0.325000  0.025000     48.000000
 -0.175000  0.325000  0.025000     24.000000
 -0.375000  0.375000  0.025000     24.000000
 -0.325000  0.375000  0.025000     48.000000
 -0.275000  0.375000  0.025000     48.000000
 -0.225000  0.375000  0.025000     48.000000
 -0.425000  0.425000  0.025000     24.000000
 -0.375000  0.425000  0.025000     48.000000
 -0.325000  0.425000  0.025000     48.000000
[...]
 -0.425000  0.425000  0.325000     24.000000
 -0.375000  0.425000  0.325000     24.000000
 -0.475000  0.475000  0.325000     24.000000
 -0.425000  0.475000  0.325000     48.000000
 -0.475000 -0.475000  0.325000     24.000000
 -0.425000 -0.475000  0.325000     24.000000
 -0.375000  0.375000  0.375000      6.000000
[...]
  -0.47500000 -0.47500000  0.37500000       0.003
  -0.42500000  0.42500000  0.42500000       0.001
  -0.47500000  0.47500000  0.42500000       0.003
  -0.47500000 -0.47500000  0.42500000       0.001
  -0.47500000  0.47500000  0.47500000       0.001

 position of ions in fractional coordinates (direct lattice)
   0.00000000  0.00000000  0.00000000

 position of ions in cartesian coordinates  (Angst):
   0.00000000  0.00000000  0.00000000

 k-point  1 :   0.0250 0.0250 0.0250  plane waves:     135
 k-point  2 :   0.0750 0.0250 0.0250  plane waves:     127
 k-point  3 :   0.1250 0.0250 0.0250  plane waves:     123
 k-point  4 :   0.1750 0.0250 0.0250  plane waves:     119
 k-point  5 :   0.2250 0.0250 0.0250  plane waves:     117
 k-point  6 :   0.2750 0.0250 0.0250  plane waves:     115
 k-point  7 :   0.3250 0.0250 0.0250  plane waves:     116
 k-point  8 :   0.3750 0.0250 0.0250  plane waves:     116
 k-point  9 :   0.4250 0.0250 0.0250  plane waves:     116
 k-point 10 :   0.4750 0.0250 0.0250  plane waves:     118
 k-point 11 :  -0.0250 0.0250 0.0250  plane waves:     135
 k-point 12 :   0.0750 0.0750 0.0250  plane waves:     121
 k-point 13 :   0.1250 0.0750 0.0250  plane waves:     121
 k-point 14 :   0.1750 0.0750 0.0250  plane waves:     119
 k-point 15 :   0.2250 0.0750 0.0250  plane waves:     117
 k-point 16 :   0.2750 0.0750 0.0250  plane waves:     117
 k-point 17 :   0.3250 0.0750 0.0250  plane waves:     118
 k-point 18 :   0.3750 0.0750 0.0250  plane waves:     117
 k-point 19 :   0.4250 0.0750 0.0250  plane waves:     118
 k-point 20 :  -0.0750 0.0750 0.0250  plane waves:     129
 k-point 21 :   0.1250 0.1250 0.0250  plane waves:     118
 k-point 22 :   0.1750 0.1250 0.0250  plane waves:     117
 k-point 23 :   0.2250 0.1250 0.0250  plane waves:     118
 k-point 24 :   0.2750 0.1250 0.0250  plane waves:     116
 k-point 25 :   0.3250 0.1250 0.0250  plane waves:     117
 k-point 26 :   0.3750 0.1250 0.0250  plane waves:     118
 k-point 27 :   0.4250 0.1250 0.0250  plane waves:     117
 k-point 28 :  -0.1250 0.1250 0.0250  plane waves:     121
 k-point 29 :  -0.0750 0.1250 0.0250  plane waves:     123
 k-point 30 :   0.1750 0.1750 0.0250  plane waves:     118
 k-point 31 :   0.2250 0.1750 0.0250  plane waves:     119
 k-point 32 :   0.2750 0.1750 0.0250  plane waves:     119
 k-point 33 :   0.3250 0.1750 0.0250  plane waves:     117
 k-point 34 :   0.3750 0.1750 0.0250  plane waves:     119
 k-point 35 :  -0.1750 0.1750 0.0250  plane waves:     122
 k-point 36 :  -0.1250 0.1750 0.0250  plane waves:     120
 k-point 37 :   0.2250 0.2250 0.0250  plane waves:     118
 k-point 38 :   0.2750 0.2250 0.0250  plane waves:     121
 k-point 39 :   0.3250 0.2250 0.0250  plane waves:     120
 k-point 40 :   0.3750 0.2250 0.0250  plane waves:     118
 k-point 41 :  -0.2250 0.2250 0.0250  plane waves:     117
 k-point 42 :  -0.1750 0.2250 0.0250  plane waves:     118
 k-point 43 :  -0.1250 0.2250 0.0250  plane waves:     118
 k-point 44 :   0.2750 0.2750 0.0250  plane waves:     118
 k-point 45 :   0.3250 0.2750 0.0250  plane waves:     118
 k-point 46 :  -0.2750 0.2750 0.0250  plane waves:     117
 k-point 47 :  -0.2250 0.2750 0.0250  plane waves:     119
 k-point 48 :  -0.1750 0.2750 0.0250  plane waves:     116
 k-point 49 :   0.3250 0.3250 0.0250  plane waves:     119
 k-point 50 :  -0.3250 0.3250 0.0250  plane waves:     114
 k-point 51 :  -0.2750 0.3250 0.0250  plane waves:     116
 k-point 52 :  -0.2250 0.3250 0.0250  plane waves:     116
 k-point 53 :  -0.1750 0.3250 0.0250  plane waves:     115
 k-point 54 :  -0.3750 0.3750 0.0250  plane waves:     114
 k-point 55 :  -0.3250 0.3750 0.0250  plane waves:     117
 k-point 56 :  -0.2750 0.3750 0.0250  plane waves:     118
 k-point 57 :  -0.2250 0.3750 0.0250  plane waves:     117
 k-point 58 :  -0.4250 0.4250 0.0250  plane waves:     116
 k-point 59 :  -0.3750 0.4250 0.0250  plane waves:     117
 k-point 60 :  -0.3250 0.4250 0.0250  plane waves:     117
[...]
 k-point 85 :   0.4250 0.0750 0.0750  plane waves:     122
 k-point 86 :  -0.0750 0.0750 0.0750  plane waves:     127
 k-point 87 :   0.1250 0.1250 0.0750  plane waves:     119
 k-point 88 :   0.1750 0.1250 0.0750  plane waves:     117
 k-point 89 :   0.2250 0.1250 0.0750  plane waves:     118
 k-point 90 :   0.2750 0.1250 0.0750  plane waves:     117
 k-point 91 :   0.3250 0.1250 0.0750  plane waves:     118
 k-point 92 :   0.3750 0.1250 0.0750  plane waves:     119
 k-point 93 :  -0.1250 0.1250 0.0750  plane waves:     120
 k-point 94 :   0.1750 0.1750 0.0750  plane waves:     120
 k-point 95 :   0.2250 0.1750 0.0750  plane waves:     119
 k-point 96 :   0.2750 0.1750 0.0750  plane waves:     120
 k-point 97 :   0.3250 0.1750 0.0750  plane waves:     119
 k-point 98 :   0.3750 0.1750 0.0750  plane waves:     122
 k-point 99 :  -0.1750 0.1750 0.0750  plane waves:     118
 k-point ** :  -0.1250 0.1750 0.0750  plane waves:     120
 k-point ** :   0.2250 0.2250 0.0750  plane waves:     118
 k-point ** :   0.2750 0.2250 0.0750  plane waves:     122
 k-point ** :   0.3250 0.2250 0.0750  plane waves:     122
 k-point ** :  -0.2250 0.2250 0.0750  plane waves:     118
 k-point ** :  -0.1750 0.2250 0.0750  plane waves:     117
 k-point ** :   0.2750 0.2750 0.0750  plane waves:     119
 k-point ** :   0.3250 0.2750 0.0750  plane waves:     119
 k-point ** :  -0.2750 0.2750 0.0750  plane waves:     119
 k-point ** :  -0.2250 0.2750 0.0750  plane waves:     117
 k-point ** :  -0.1750 0.2750 0.0750  plane waves:     116
 k-point ** :  -0.3250 0.3250 0.0750  plane waves:     118
 k-point ** :  -0.2750 0.3250 0.0750  plane waves:     118
 k-point ** :  -0.2250 0.3250 0.0750  plane waves:     114
 k-point ** :  -0.3750 0.3750 0.0750  plane waves:     118
 k-point ** :  -0.3250 0.3750 0.0750  plane waves:     119
 k-point ** :  -0.2750 0.3750 0.0750  plane waves:     117
 k-point ** :  -0.2250 0.3750 0.0750  plane waves:     116
 k-point ** :  -0.4250 0.4250 0.0750  plane waves:     118
 k-point ** :  -0.3750 0.4250 0.0750  plane waves:     117
 k-point ** :  -0.3250 0.4250 0.0750  plane waves:     117
 k-point ** :  -0.2750 0.4250 0.0750  plane waves:     116
 k-point ** :  -0.4750 0.4750 0.0750  plane waves:     119
 k-point ** :  -0.4250 0.4750 0.0750  plane waves:     121
 k-point ** :  -0.3750 0.4750 0.0750  plane waves:     117
 k-point ** :  -0.3250 0.4750 0.0750  plane waves:     117
 k-point ** :  -0.2750 0.4750 0.0750  plane waves:     116
 k-point ** :  -0.4750-0.4750 0.0750  plane waves:     122
 k-point ** :  -0.4250-0.4750 0.0750  plane waves:     119
 k-point ** :  -0.3750-0.4750 0.0750  plane waves:     119
 k-point ** :  -0.3250-0.4750 0.0750  plane waves:     118
 k-point ** :  -0.4250-0.4250 0.0750  plane waves:     117
 k-point ** :  -0.3750-0.4250 0.0750  plane waves:     117
 k-point ** :  -0.3250-0.4250 0.0750  plane waves:     117
 k-point ** :  -0.3750-0.3750 0.0750  plane waves:     119
 k-point ** :   0.1250 0.1250 0.1250  plane waves:     119
 k-point ** :   0.1750 0.1250 0.1250  plane waves:     120
 k-point ** :   0.2250 0.1250 0.1250  plane waves:     118
 k-point ** :   0.2750 0.1250 0.1250  plane waves:     118
 k-point ** :   0.3250 0.1250 0.1250  plane waves:     120
 k-point ** :   0.3750 0.1250 0.1250  plane waves:     122
 k-point ** :  -0.1250 0.1250 0.1250  plane waves:     120
 k-point ** :   0.1750 0.1750 0.1250  plane waves:     124
 k-point ** :   0.2250 0.1750 0.1250  plane waves:     121
 k-point ** :   0.2750 0.1750 0.1250  plane waves:     121
 k-point ** :   0.3250 0.1750 0.1250  plane waves:     121
 k-point ** :  -0.1750 0.1750 0.1250  plane waves:     116
 k-point ** :   0.2250 0.2250 0.1250  plane waves:     121
 k-point ** :   0.2750 0.2250 0.1250  plane waves:     121
 k-point ** :   0.3250 0.2250 0.1250  plane waves:     121
 k-point ** :  -0.2250 0.2250 0.1250  plane waves:     116
 k-point ** :  -0.1750 0.2250 0.1250  plane waves:     114
 k-point ** :   0.2750 0.2750 0.1250  plane waves:     119
 k-point ** :  -0.2750 0.2750 0.1250  plane waves:     116
 k-point ** :  -0.2250 0.2750 0.1250  plane waves:     115
 k-point ** :  -0.3250 0.3250 0.1250  plane waves:     118
 k-point ** :  -0.2750 0.3250 0.1250  plane waves:     117
 k-point ** :  -0.2250 0.3250 0.1250  plane waves:     116
 k-point ** :  -0.3750 0.3750 0.1250  plane waves:     116
 k-point ** :  -0.3250 0.3750 0.1250  plane waves:     116
[...]
 k-point ** :  -0.4250 0.4250 0.3250  plane waves:     114
 k-point ** :  -0.3750 0.4250 0.3250  plane waves:     114
 k-point ** :  -0.4750 0.4750 0.3250  plane waves:     114
 k-point ** :  -0.4250 0.4750 0.3250  plane waves:     116
 k-point ** :  -0.4750-0.4750 0.3250  plane waves:     116
 k-point ** :  -0.4250-0.4750 0.3250  plane waves:     116
 k-point ** :  -0.3750 0.3750 0.3750  plane waves:     116
 k-point ** :  -0.4250 0.4250 0.3750  plane waves:     116
 k-point ** :  -0.4750 0.4750 0.3750  plane waves:     116
 k-point ** :  -0.4250 0.4750 0.3750  plane waves:     116
 k-point ** :  -0.4750-0.4750 0.3750  plane waves:     116
 k-point ** :  -0.4250 0.4250 0.4250  plane waves:     116
 k-point ** :  -0.4750 0.4750 0.4250  plane waves:     116
 k-point ** :  -0.4750-0.4750 0.4250  plane waves:     116
 k-point ** :  -0.4750 0.4750 0.4750  plane waves:     116

 maximum and minimum number of plane-waves per node :       135      112

 maximum number of plane-waves:       135
 maximum index in each direction:
   IXMAX=    3   IYMAX=    3   IZMAX=    3
   IXMIN=   -3   IYMIN=   -3   IZMIN=   -3

 serial   3D FFT for wavefunctions
 parallel 3D FFT for charge:
    minimum data exchange during FFTs selected (reduces bandwidth)

 initial charge density was supplied:
 number of electron       7.9999985 magnetization       2.3384769
 keeping initial charge density in first step

 Maximum index for augmentation-charges         2891 (set IRDMAX)

 First call to EWALD:  gamma=   0.778
 Maximum number of real-space cells 3x 3x 3
 Maximum number of reciprocal cells 3x 3x 3

--------------------------------------- Iteration      1(   1)  ---------------------------------------

 BZINTS: Fermi energy:  9.477485;  8.000000 electrons
         Band energy:  43.848674;  BLOECHL correction: -0.424238

 eigenvalue-minimisations  : 10858
 total energy-change (2. order) : 0.9398257E+01  (-0.2783056E+03)
 number of electron       7.9999985 magnetization       2.3384769
 augmentation part        7.9999985 magnetization       2.3384769

 Free energy of the ion-electron system (eV)
  alpha Z        PSCENC =        58.10571186
  Ewald energy   TEWEN  =      -584.29755670
  -Hartree energ DENC   =       -98.78666613
  -exchange      EXHF   =         0.00000000
  -V(xc)+E(xc)   XCENC  =         3.99946285
  PAW double counting   =       509.92684529     -518.92590222
  entropy T*S    EENTRO =         0.00000000
  eigenvalues    EBANDS =        43.84867414
  atomic energy  EATOM  =       595.52768804
  Solvation  Ediel_sol  =         0.00000000
  free energy    TOTEN  =         9.39825712 eV

  energy without entropy =        9.39825712  energy(sigma->0) =        9.39825712

[...]

 eigenvalue-minimisations  : 10216
 total energy-change (2. order) :-0.1730529E+02  (-0.1611048E+02)
 number of electron       7.9999985 magnetization       2.3384769
 augmentation part        7.9999985 magnetization       2.3384769

[...]

--------------------------------------- Iteration      1(   6)  ---------------------------------------

[...]

 eigenvalue-minimisations  :  6886
 total energy-change (2. order) :-0.2076674E-06  (-0.2067634E-06)
 number of electron       7.9999985 magnetization       2.3384769
 augmentation part        7.9999985 magnetization       2.3384769

 Free energy of the ion-electron system (eV)
  alpha Z        PSCENC =        58.10571186
  Ewald energy   TEWEN  =      -584.29755670
  -Hartree energ DENC   =       -98.78666613
  -exchange      EXHF   =         0.00000000
  -V(xc)+E(xc)   XCENC  =         3.99946285
  PAW double counting   =       509.92684529     -518.92590222
  entropy T*S    EENTRO =         0.00000000
  eigenvalues    EBANDS =        26.31357521
  atomic energy  EATOM  =       595.52768804
  Solvation  Ediel_sol  =         0.00000000
  free energy    TOTEN  =        -8.13684182 eV

  energy without entropy =       -8.13684182  energy(sigma->0) =       -8.13684182

 average (electrostatic) potential at core
  the test charge radii are     1.0103
  (the norm of the test charge is              1.0000)
       1 -43.7866

 E-fermi :   5.3659     XC(G=0): -12.9087     alpha+bet :-13.1120

 spin component 1

 k-point     1 :       0.0250    0.0250    0.0250
  band No.  band energies     occupation
      1      -2.6175      1.00000
      2       3.0902      1.00000
      3       3.0902      1.00000
      4       3.2103      1.00000
      5       4.4664      1.00000
      6       4.4664      1.00000
      7      29.2897      0.00000
      8      29.2897      0.00000
      9      30.2005      0.00000
     10      34.4298      0.00000

[...]

 spin component 2

[...]

 k-point   250 :      -0.4750    0.4750    0.4750
  band No.  band energies     occupation
      1       2.6132      1.00000
      2       2.6205      1.00000
      3       7.7257      0.00000
      4       7.7261      0.00000
      5       7.7654      0.00000
      6      15.1063      0.00000
      7      15.5423      0.00000
      8      15.5424      0.00000
      9      21.7118      0.00000
     10      21.9471      0.00000

 soft charge-density along one line, spin component           1
         0         1         2         3         4         5         6         7         8         9
 total charge-density along one line

 soft charge-density along one line, spin component           2
         0         1         2         3         4         5         6         7         8         9
 total charge-density along one line

------------------------ aborting loop because EDIFF is reached ----------------------------------------

 total charge

# of ion       s       p       d       tot
    1        0.469   0.500   6.233   7.202

 magnetization (x)

[...]

  FORCE on cell =-STRESS in cart. coord.  units (eV):
  Direction    XX          YY          ZZ          XY          YZ          ZX
  Alpha Z    58.10571    58.10571    58.10571
  Ewald    -194.76585  -194.76585  -194.76585     0.00000     0.00000     0.00000
  Hartree    32.81663    32.81663    32.81663    -0.00000    -0.00000    -0.00000
  E(xc)     -39.88465   -39.88465   -39.88465     0.00008     0.00008     0.00008
  Local      58.05977    58.05977    58.05977    -0.00021    -0.00021    -0.00021
  n-local   -27.94765   -26.88803   -26.12316     1.06637    -0.62679    -1.41665
  augment    38.69935    38.69935    38.69935     0.00050     0.00050     0.00050
  Kinetic    73.12125    72.58264    72.46526    -2.34886     1.87438     1.32032
  Fock        0.00000     0.00000     0.00000     0.00000     0.00000     0.00000
  Total      -1.23226    -1.23226    -1.23226    -0.00000    -0.00000    -0.00000
  in kB    -167.03096  -167.03096  -167.03096    -0.00000    -0.00000    -0.00000

 VOLUME and BASIS-vectors are now :
  energy-cutoff  :      267.91
  volume of cell :       11.82
      direct lattice vectors                 reciprocal lattice vectors
    -1.435000000  1.435000000  1.435000000     0.000000000  0.348432056  0.348432056
     1.435000000 -1.435000000  1.435000000     0.348432056  0.000000000  0.348432056
     1.435000000  1.435000000 -1.435000000     0.348432056  0.348432056  0.000000000

  length of vectors
     2.485492909  2.485492909  2.485492909     0.492757339  0.492757339  0.492757339

 FORCES acting on ions
    electron-ion (+dipol)            ewald-force                    non-local-force                 convergence-correction
   -.706E-13 0.137E-12 -.422E-13   0.131E-14 -.418E-15 -.327E-17   0.424E-21 -.424E-21 0.000E+00   -.423E-12 -.106E-12 0.417E-12
   -.706E-13 0.137E-12 -.422E-13   0.131E-14 -.418E-15 -.327E-17   0.424E-21 -.424E-21 0.000E+00   -.423E-12 -.106E-12 0.417E-12

 POSITION                                       TOTAL-FORCE (eV/Angst)
      0.00000      0.00000      0.00000        -0.000000      0.000000      0.000000
    total drift:                               -0.000000      0.000000      0.000000

  FREE ENERGIE OF THE ION-ELECTRON SYSTEM (eV)
  free  energy   TOTEN  =        -8.13684182 eV

  energy  without entropy=       -8.13684182  energy(sigma->0) =       -8.13684182

 total charge

[...]

 magnetization (x)

# of ion       s       p       d       tot
    1       -0.015  -0.050   2.356   2.291

 BZINTS: Fermi energy:  5.365940;  8.000000 electrons
         Band energy:  26.313575;  BLOECHL correction: -0.012137