 vasp.5.4.4.18Apr17-6-g9f103f2a35 (build May 20 2018 16:52:39) complex

 executed on             LinuxIFC date 2022.10.31  00:06:14

 INCAR:
 POTCAR:    PAW Fe
 POTCAR:    PAW Fe
   VRHFIN =Fe:  d7 s1

   TITEL  = PAW Fe
   POMASS =   55.847; ZVAL   =    8.000    mass and valenz
   ENMAX  =  267.969; ENMIN  =  200.977 eV
   QCUT   =   -4.438; QGAM   =    8.876    optimization parameters

   Description
     l     E      TYP  RCUT    TYP  RCUT
     2   .000     23  2.300
     2   .000     23  2.300
     0   .000     23  2.300
     0   .000     23  2.300
     1  -.200     23  2.300
     1   .000     23  2.300
     3   .000      7   .000

  PAW Fe                                :

 POSCAR: Fe bulk fcc
  positions in direct lattice
 exchange correlation table for  LEXCH =        2
   RHO(1)=    0.500       N(1)  =     2000
   RHO(2)=  100.500       N(2)  =     4000

 ion  position               nearest neighbor table
   1  0.000  0.000  0.000-

  LATTYP: Found a face centered cubic cell.
 ALAT       =     3.3500000000

  Lattice vectors:

 A1 = (   0.0000000000,   1.6750000000,   1.6750000000)
 A2 = (   1.6750000000,   0.0000000000,   1.6750000000)
 A3 = (   1.6750000000,   1.6750000000,   0.0000000000)

Analysis of symmetry for initial positions (statically):
 Subroutine PRICEL returns:
 Original cell was already a primitive cell.

 Routine SETGRP: Setting up the symmetry group for a
 face centered cubic supercell.

 Subroutine GETGRP returns: Found 48 space group operations
 (whereof 48 operations were pure point group operations)
 out of a pool of 48 trial point group operations.

The static configuration has the point symmetry O_h .

Analysis of symmetry for dynamics (positions and initial velocities):
 Subroutine PRICEL returns:
 Original cell was already a primitive cell.

 Routine SETGRP: Setting up the symmetry group for a
 face centered cubic supercell.

 Subroutine GETGRP returns: Found 48 space group operations
 (whereof 48 operations were pure point group operations)
 out of a pool of 48 trial point group operations.

The dynamic configuration has the point symmetry O_h .

 Subroutine INISYM returns: Found 48 space group operations
 (whereof 48 operations are pure point group operations),
 and found     1 'primitive' translations

 KPOINTS: 20x20x20

Automatic generation of k-mesh.
Space group operators:
 irot       det(A)        alpha          n_x          n_y          n_z        tau_x        tau_y        tau_z
    1     1.000000     0.000000     1.000000     0.000000     0.000000     0.000000     0.000000     0.000000
    2    -1.000000     0.000000     1.000000     0.000000     0.000000     0.000000     0.000000     0.000000
    3     1.000000   120.000000    -0.577350    -0.577350    -0.577350     0.000000     0.000000     0.000000
    4    -1.000000   120.000000    -0.577350    -0.577350    -0.577350     0.000000     0.000000     0.000000
    5     1.000000   120.000000     0.577350     0.577350     0.577350     0.000000     0.000000     0.000000
    6    -1.000000   120.000000     0.577350     0.577350     0.577350     0.000000     0.000000     0.000000
    7     1.000000    90.000000     0.000000     0.000000    -1.000000     0.000000     0.000000     0.000000
    8    -1.000000    90.000000     0.000000     0.000000    -1.000000     0.000000     0.000000     0.000000
    9     1.000000   180.000000     0.000000     0.707107     0.707107     0.000000     0.000000     0.000000
   10    -1.000000   180.000000     0.000000     0.707107     0.707107     0.000000     0.000000     0.000000
   11     1.000000    90.000000     0.000000     1.000000     0.000000     0.000000     0.000000     0.000000
   12    -1.000000    90.000000     0.000000     1.000000     0.000000     0.000000     0.000000     0.000000
   13     1.000000   180.000000     0.000000     0.000000     1.000000     0.000000     0.000000     0.000000
   14    -1.000000   180.000000     0.000000     0.000000     1.000000     0.000000     0.000000     0.000000
   15     1.000000   120.000000    -0.577350     0.577350     0.577350     0.000000     0.000000     0.000000
   16    -1.000000   120.000000    -0.577350     0.577350     0.577350     0.000000     0.000000     0.000000
   17     1.000000   120.000000    -0.577350     0.577350    -0.577350     0.000000     0.000000     0.000000
   18    -1.000000   120.000000    -0.577350     0.577350    -0.577350     0.000000     0.000000     0.000000
   19     1.000000    90.000000     0.000000     0.000000     1.000000     0.000000     0.000000     0.000000
   20    -1.000000    90.000000     0.000000     0.000000     1.000000     0.000000     0.000000     0.000000
   21     1.000000    90.000000    -1.000000     0.000000     0.000000     0.000000     0.000000     0.000000
   22    -1.000000    90.000000    -1.000000     0.000000     0.000000     0.000000     0.000000     0.000000
   23     1.000000   180.000000     0.707107     0.000000     0.707107     0.000000     0.000000     0.000000
   24    -1.000000   180.000000     0.707107     0.000000     0.707107     0.000000     0.000000     0.000000
   25     1.000000   120.000000     0.577350    -0.577350     0.577350     0.000000     0.000000     0.000000
   26    -1.000000   120.000000     0.577350    -0.577350     0.577350     0.000000     0.000000     0.000000
   27     1.000000   120.000000    -0.577350    -0.577350     0.577350     0.000000     0.000000     0.000000
   28    -1.000000   120.000000    -0.577350    -0.577350     0.577350     0.000000     0.000000     0.000000
   29     1.000000   180.000000     1.000000     0.000000     0.000000     0.000000     0.000000     0.000000
   30    -1.000000   180.000000     1.000000     0.000000     0.000000     0.000000     0.000000     0.000000
   31     1.000000    90.000000     0.000000    -1.000000     0.000000     0.000000     0.000000     0.000000
   32    -1.000000    90.000000     0.000000    -1.000000     0.000000     0.000000     0.000000     0.000000
   33     1.000000   180.000000     0.707107     0.707107     0.000000     0.000000     0.000000     0.000000
   34    -1.000000   180.000000     0.707107     0.707107     0.000000     0.000000     0.000000     0.000000
   35     1.000000    90.000000     1.000000     0.000000     0.000000     0.000000     0.000000     0.000000
   36    -1.000000    90.000000     1.000000     0.000000     0.000000     0.000000     0.000000     0.000000
   37     1.000000   120.000000     0.577350    -0.577350    -0.577350     0.000000     0.000000     0.000000
   38    -1.000000   120.000000     0.577350    -0.577350    -0.577350     0.000000     0.000000     0.000000
   39     1.000000   180.000000     0.000000     1.000000     0.000000     0.000000     0.000000     0.000000
   40    -1.000000   180.000000     0.000000     1.000000     0.000000     0.000000     0.000000     0.000000
   41     1.000000   120.000000     0.577350     0.577350    -0.577350     0.000000     0.000000     0.000000
   42    -1.000000   120.000000     0.577350     0.577350    -0.577350     0.000000     0.000000     0.000000
   43     1.000000   180.000000     0.000000    -0.707107     0.707107     0.000000     0.000000     0.000000
   44    -1.000000   180.000000     0.000000    -0.707107     0.707107     0.000000     0.000000     0.000000
   45     1.000000   180.000000     0.707107    -0.707107     0.000000     0.000000     0.000000     0.000000
   46    -1.000000   180.000000     0.707107    -0.707107     0.000000     0.000000     0.000000     0.000000
   47     1.000000   180.000000     0.707107     0.000000    -0.707107     0.000000     0.000000     0.000000
   48    -1.000000   180.000000     0.707107     0.000000    -0.707107     0.000000     0.000000     0.000000

 Subroutine IBZKPT returns following result:

 Found    770 irreducible k-points:

 Following reciprocal coordinates:
            Coordinates               Weight
  0.025000  0.025000  0.025000     96.000000
  0.075000  0.025000  0.025000    288.000000
  0.125000  0.025000  0.025000    288.000000
  0.175000  0.025000  0.025000    288.000000
  0.225000  0.025000  0.025000    288.000000
  0.275000  0.025000  0.025000    288.000000
  0.325000  0.025000  0.025000    288.000000
  0.375000  0.025000  0.025000    288.000000
  0.425000  0.025000  0.025000    288.000000
  0.475000  0.025000  0.025000    288.000000
 -0.475000  0.025000  0.025000    288.000000
 -0.425000  0.025000  0.025000    288.000000
 -0.375000  0.025000  0.025000    288.000000
 -0.325000  0.025000  0.025000    288.000000
 -0.275000  0.025000  0.025000    288.000000
 -0.225000  0.025000  0.025000    288.000000
 -0.175000  0.025000  0.025000    288.000000
 -0.125000  0.025000  0.025000    288.000000
 -0.075000  0.025000  0.025000    288.000000
 -0.025000  0.025000  0.025000    288.000000
  0.075000  0.075000  0.025000    288.000000
  0.125000  0.075000  0.025000    576.000000
  0.175000  0.075000  0.025000    576.000000
  0.225000  0.075000  0.025000    576.000000
  0.275000  0.075000  0.025000    576.000000
  0.325000  0.075000  0.025000    576.000000
  0.375000  0.075000  0.025000    576.000000
  0.425000  0.075000  0.025000    576.000000
  0.475000  0.075000  0.025000    576.000000
 -0.475000  0.075000  0.025000    576.000000
 -0.425000  0.075000  0.025000    576.000000
 -0.375000  0.075000  0.025000    576.000000
 -0.325000  0.075000  0.025000    576.000000
 -0.275000  0.075000  0.025000    576.000000
 -0.225000  0.075000  0.025000    576.000000
 -0.175000  0.075000  0.025000    576.000000
 -0.125000  0.075000  0.025000    576.000000
 -0.075000  0.075000  0.025000    576.000000
 -0.025000  0.075000  0.025000    576.000000
  0.125000  0.125000  0.025000    288.000000
  0.175000  0.125000  0.025000    576.000000
  0.225000  0.125000  0.025000    576.000000
  0.275000  0.125000  0.025000    576.000000
  0.325000  0.125000  0.025000    576.000000
  0.375000  0.125000  0.025000    576.000000
  0.425000  0.125000  0.025000    576.000000
  0.475000  0.125000  0.025000    576.000000
 -0.475000  0.125000  0.025000    576.000000
 -0.425000  0.125000  0.025000    576.000000
 -0.375000  0.125000  0.025000    576.000000
 -0.325000  0.125000  0.025000    576.000000
 -0.275000  0.125000  0.025000    576.000000
 -0.225000  0.125000  0.025000    576.000000
 -0.175000  0.125000  0.025000    576.000000
 -0.125000  0.125000  0.025000    576.000000
 -0.075000  0.125000  0.025000    576.000000
 -0.025000  0.125000  0.025000    576.000000
  0.175000  0.175000  0.025000    288.000000
  0.225000  0.175000  0.025000    576.000000
  0.275000  0.175000  0.025000    576.000000
[...]
 -0.425000  0.475000  0.375000    576.000000
 -0.375000  0.475000  0.375000    576.000000
 -0.475000 -0.475000  0.375000    288.000000
 -0.425000 -0.475000  0.375000    576.000000
 -0.425000 -0.425000  0.375000    288.000000
  0.425000  0.425000  0.425000     96.000000
  0.475000  0.425000  0.425000    288.000000
 -0.475000  0.425000  0.425000    288.000000
 -0.425000  0.425000  0.425000    288.000000
  0.475000  0.475000  0.425000    288.000000
 -0.475000  0.475000  0.425000    576.000000
 -0.425000  0.475000  0.425000    576.000000
 -0.475000 -0.475000  0.425000    288.000000
[...]
 k-point 54 :  -0.1750 0.1250 0.0250  plane waves:      92
 k-point 55 :  -0.1250 0.1250 0.0250  plane waves:      92
 k-point 56 :  -0.0750 0.1250 0.0250  plane waves:      94
 k-point 57 :  -0.0250 0.1250 0.0250  plane waves:      96
 k-point 58 :   0.1750 0.1750 0.0250  plane waves:      90
 k-point 59 :   0.2250 0.1750 0.0250  plane waves:      90
 k-point 60 :   0.2750 0.1750 0.0250  plane waves:      90
[...]
 k-point 85 :  -0.2750 0.2250 0.0250  plane waves:      94
 k-point 86 :  -0.2250 0.2250 0.0250  plane waves:      94
 k-point 87 :  -0.1750 0.2250 0.0250  plane waves:      95
 k-point 88 :  -0.1250 0.2250 0.0250  plane waves:      93
 k-point 89 :  -0.0750 0.2250 0.0250  plane waves:      92
 k-point 90 :  -0.0250 0.2250 0.0250  plane waves:      93
 k-point 91 :   0.2750 0.2750 0.0250  plane waves:      87
 k-point 92 :   0.3250 0.2750 0.0250  plane waves:      91
 k-point 93 :   0.3750 0.2750 0.0250  plane waves:      91
 k-point 94 :   0.4250 0.2750 0.0250  plane waves:      92
 k-point 95 :   0.4750 0.2750 0.0250  plane waves:      93
 k-point 96 :  -0.4750 0.2750 0.0250  plane waves:      94
 k-point 97 :  -0.4250 0.2750 0.0250  plane waves:      96
 k-point 98 :  -0.3750 0.2750 0.0250  plane waves:      95
 k-point 99 :  -0.3250 0.2750 0.0250  plane waves:      93
 k-point ** :  -0.2750 0.2750 0.0250  plane waves:      93
 k-point ** :  -0.2250 0.2750 0.0250  plane waves:      93
 k-point ** :  -0.1750 0.2750 0.0250  plane waves:      94
 k-point ** :  -0.1250 0.2750 0.0250  plane waves:      95
 k-point ** :  -0.0750 0.2750 0.0250  plane waves:      93
 k-point ** :  -0.0250 0.2750 0.0250  plane waves:      95
 k-point ** :   0.3250 0.3250 0.0250  plane waves:      88
 k-point ** :   0.3750 0.3250 0.0250  plane waves:      91
 k-point ** :   0.4250 0.3250 0.0250  plane waves:      93
 k-point ** :   0.4750 0.3250 0.0250  plane waves:      96
 k-point ** :  -0.4750 0.3250 0.0250  plane waves:      96
 k-point ** :  -0.4250 0.3250 0.0250  plane waves:      97
 k-point ** :  -0.3750 0.3250 0.0250  plane waves:      98
 k-point ** :  -0.3250 0.3250 0.0250  plane waves:      96
 k-point ** :  -0.2750 0.3250 0.0250  plane waves:      93
 k-point ** :  -0.2250 0.3250 0.0250  plane waves:      93
 k-point ** :  -0.1750 0.3250 0.0250  plane waves:      93
 k-point ** :  -0.1250 0.3250 0.0250  plane waves:      94
 k-point ** :  -0.0750 0.3250 0.0250  plane waves:      93
 k-point ** :  -0.0250 0.3250 0.0250  plane waves:      95
 k-point ** :   0.3750 0.3750 0.0250  plane waves:      88
 k-point ** :   0.4250 0.3750 0.0250  plane waves:      92
 k-point ** :   0.4750 0.3750 0.0250  plane waves:      94
 k-point ** :  -0.4750 0.3750 0.0250  plane waves:      98
 k-point ** :  -0.4250 0.3750 0.0250  plane waves:      98
 k-point ** :  -0.3750 0.3750 0.0250  plane waves:      99
 k-point ** :  -0.3250 0.3750 0.0250  plane waves:      99
 k-point ** :  -0.2750 0.3750 0.0250  plane waves:      94
 k-point ** :  -0.2250 0.3750 0.0250  plane waves:      94
 k-point ** :  -0.1750 0.3750 0.0250  plane waves:      94
 k-point ** :  -0.1250 0.3750 0.0250  plane waves:      91
 k-point ** :  -0.0750 0.3750 0.0250  plane waves:      93
 k-point ** :  -0.0250 0.3750 0.0250  plane waves:      95
 k-point ** :   0.4250 0.4250 0.0250  plane waves:      92
 k-point ** :   0.4750 0.4250 0.0250  plane waves:      92
 k-point ** :  -0.4750 0.4250 0.0250  plane waves:      95
 k-point ** :  -0.4250 0.4250 0.0250  plane waves:      96
 k-point ** :  -0.3750 0.4250 0.0250  plane waves:      98
 k-point ** :  -0.3250 0.4250 0.0250  plane waves:      99
 k-point ** :  -0.2750 0.4250 0.0250  plane waves:      96
 k-point ** :  -0.2250 0.4250 0.0250  plane waves:      96
 k-point ** :  -0.1750 0.4250 0.0250  plane waves:      93
 k-point ** :  -0.1250 0.4250 0.0250  plane waves:      92
 k-point ** :  -0.0750 0.4250 0.0250  plane waves:      94
 k-point ** :  -0.0250 0.4250 0.0250  plane waves:      93
 k-point ** :   0.4750 0.4750 0.0250  plane waves:      92
 k-point ** :  -0.4750 0.4750 0.0250  plane waves:      92
 k-point ** :  -0.4250 0.4750 0.0250  plane waves:      96
 k-point ** :  -0.3750 0.4750 0.0250  plane waves:      97
 k-point ** :  -0.3250 0.4750 0.0250  plane waves:      97
 k-point ** :  -0.2750 0.4750 0.0250  plane waves:      96
 k-point ** :  -0.2250 0.4750 0.0250  plane waves:      95
 k-point ** :  -0.1750 0.4750 0.0250  plane waves:      93
 k-point ** :  -0.1250 0.4750 0.0250  plane waves:      92
 k-point ** :  -0.0750 0.4750 0.0250  plane waves:      93
 k-point ** :  -0.0250 0.4750 0.0250  plane waves:      90
 k-point ** :  -0.4750-0.4750 0.0250  plane waves:      92
 k-point ** :  -0.4250-0.4750 0.0250  plane waves:      92
 k-point ** :  -0.3750-0.4750 0.0250  plane waves:      95
 k-point ** :  -0.3250-0.4750 0.0250  plane waves:      97
[...]
 k-point ** :  -0.4250 0.4750 0.3750  plane waves:      93
 k-point ** :  -0.3750 0.4750 0.3750  plane waves:      93
 k-point ** :  -0.4750-0.4750 0.3750  plane waves:      93
 k-point ** :  -0.4250-0.4750 0.3750  plane waves:      93
 k-point ** :  -0.4250-0.4250 0.3750  plane waves:      93
 k-point ** :   0.4250 0.4250 0.4250  plane waves:      93
 k-point ** :   0.4750 0.4250 0.4250  plane waves:      93
 k-point ** :  -0.4750 0.4250 0.4250  plane waves:      93
 k-point ** :  -0.4250 0.4250 0.4250  plane waves:      91
 k-point ** :   0.4750 0.4750 0.4250  plane waves:      92
 k-point ** :  -0.4750 0.4750 0.4250  plane waves:      93
 k-point ** :  -0.4250 0.4750 0.4250  plane waves:      94
 k-point ** :  -0.4750-0.4750 0.4250  plane waves:      93
 k-point ** :   0.4750 0.4750 0.4750  plane waves:      90
 k-point ** :  -0.4750 0.4750 0.4750  plane waves:      90

 maximum and minimum number of plane-waves per node :       101       87

 maximum number of plane-waves:       101
 maximum index in each direction:
   IXMAX=    3   IYMAX=    3   IZMAX=    3
   IXMIN=   -3   IYMIN=   -3   IZMIN=   -3

 serial   3D FFT for wavefunctions
 parallel 3D FFT for charge:
    minimum data exchange during FFTs selected (reduces bandwidth)

 Broyden mixing: mesh for mixing (old mesh)
   NGX =  7   NGY =  7   NGZ =  7
  (NGX  = 20   NGY  = 20   NGZ  = 20)
  gives a total of    343 points

 initial charge density was supplied:
 charge density of overlapping atoms calculated
 number of electron       8.0000000 magnetization
 keeping initial charge density in first step

 Maximum index for augmentation-charges         3589 (set IRDMAX)

 First call to EWALD:  gamma=   0.840
 Maximum number of real-space cells 3x 3x 3
 Maximum number of reciprocal cells 3x 3x 3

--------------------------------------- Iteration      1(   1)  ---------------------------------------

 eigenvalue-minimisations  : 13048
 total energy-change (2. order) : 0.2277961E+01  (-0.3059283E+03)
 number of electron       8.0000000 magnetization
 augmentation part        8.0000000 magnetization

 Free energy of the ion-electron system (eV)
  alpha Z        PSCENC =        71.25202565
  Ewald energy   TEWEN  =      -630.64872164
  -Hartree energ DENC   =       -96.94513039
  -exchange      EXHF   =         0.00000000
  -V(xc)+E(xc)   XCENC  =         4.95195485
  PAW double counting   =       479.09899362     -488.38466797
  entropy T*S    EENTRO =         0.00055205
  eigenvalues    EBANDS =        65.62260220
  atomic energy  EATOM  =       597.33035224
  Solvation  Ediel_sol  =         0.00000000
  free energy    TOTEN  =         2.27796061 eV

  energy without entropy =        2.27740856  energy(sigma->0) =        2.27777659

[...]

 eigenvalue-minimisations  : 12704
 total energy-change (2. order) :-0.1309340E+02  (-0.1237449E+02)
 number of electron       8.0000000 magnetization
 augmentation part        8.0000000 magnetization

[...]

 Broyden mixing:
  rms(total) = 0.89417E+00    rms(broyden)= 0.89414E+00
  rms(prec ) = 0.35829E+01
  weight for this iteration     100.00

[...]

 eigenvalues of (default mixing * dielectric matrix)
  average eigenvalue GAMMA=   0.9056
  0.9056

[...]

 average (electrostatic) potential at core
  the test charge radii are     1.0103
  (the norm of the test charge is              1.0000)
       1 -42.3007

 E-fermi :   7.6620     XC(G=0): -14.5494     alpha+bet :-16.4029

 k-point     1 :       0.0250    0.0250    0.0250
  band No.  band energies     occupation
      1      -1.5666      2.00000
      2       5.7881      2.00000
      3       5.8088      2.00000
      4       5.8088      2.00000
      5       7.5849      1.60200
      6       7.5849      1.60200
      7      31.7629      0.00000
      8      37.4044      0.00000

[...]

 soft charge-density along one line, spin component           1
         0         1         2         3         4         5         6         7         8         9
 total charge-density along one line

------------------------ aborting loop because EDIFF is reached ----------------------------------------

  FORCE on cell =-STRESS in cart. coord.  units (eV):
  Direction    XX          YY          ZZ          XY          YZ          ZX
  Alpha Z    71.25203    71.25203    71.25203
  Ewald    -210.21625  -210.21625  -210.21625    -0.00000     0.00000     0.00000
  Hartree    26.73851    26.73851    26.73851     0.00000     0.00000     0.00000
  E(xc)     -39.54398   -39.54398   -39.54398    -0.00001    -0.00001    -0.00001
  Local      63.27989    63.27989    63.27989     0.00001     0.00001     0.00001
  n-local   -24.51413   -24.77527   -27.13325     1.14962    -1.14606    -0.00201
  augment    37.36214    37.36214    37.36214    -0.00003    -0.00003    -0.00003
  Kinetic    74.11766    77.65300    78.42045    -0.11664     0.11859     0.02478
  Fock        0.00000     0.00000     0.00000     0.00000     0.00000     0.00000
  Total       0.12850     0.12850     0.12850     0.00000     0.00000     0.00000
  in kB      21.90430    21.90430    21.90430     0.00000     0.00000     0.00000

 VOLUME and BASIS-vectors are now :
  energy-cutoff  :      267.97
  volume of cell :        9.40
      direct lattice vectors                 reciprocal lattice vectors
     0.000000000  1.675000000  1.675000000    -0.298507463  0.298507463  0.298507463
     1.675000000  0.000000000  1.675000000     0.298507463 -0.298507463  0.298507463
     1.675000000  1.675000000  0.000000000     0.298507463  0.298507463 -0.298507463

[...]

 FORCES acting on ions
    electron-ion (+dipol)            ewald-force                    non-local-force                 convergence-correction
   0.106E-13 0.125E-13 0.113E-13   -.720E-15 0.122E-14 0.280E-14   -.414E-24 0.103E-24 -.827E-24   0.937E-14 0.149E-13 0.627E-14
   0.106E-13 0.125E-13 0.113E-13   -.720E-15 0.122E-14 0.280E-14   -.414E-24 0.103E-24 -.827E-24   0.937E-14 0.149E-13 0.627E-14

 POSITION                                       TOTAL-FORCE (eV/Angst)
      0.00000      0.00000      0.00000         0.000000     -0.000000      0.000000
    total drift:                                0.000000      0.000000      0.000000

  FREE ENERGIE OF THE ION-ELECTRON SYSTEM (eV)
  free  energy   TOTEN  =        -9.32770376 eV

  energy  without entropy=       -9.32804314  energy(sigma->0) =       -9.32781689

[...]

 d Force = 0.0000000E+00[ 0.000E+00, 0.000E+00]  d Energy =-0.1980973E-02 0.198E-02
 d Force = 0.0000000E+00[ 0.000E+00, 0.000E+00]  d Ewald  =-0.3885332E+01 0.389E+01

 Steepest descent step on ions:
 trial-energy change:    0.001981  1 .order    0.001978   -0.002390    0.006346
  (g-gl).g = 0.239E-02      g.g   = 0.239E-02  gl.gl    = 0.000E+00
 g(Force)  = 0.352E-63   g(Stress)= 0.239E-02 ortho     = 0.000E+00
 gamma     =   0.00000
 trial     =   1.00000
 opt step  =   0.27356  (harmonic =   0.27356) maximal distance =0.00000000
 next E    =    -9.328031   (d E  =  -0.00033)

[...]

 eigenvalue-minimisations  : 12320
 total energy-change (2. order) :-0.1450599E-01  (-0.3414056E-01)
 number of electron       8.0000058 magnetization
 augmentation part        4.0398026 magnetization

[...]

 Broyden mixing:
  rms(total) = 0.78917E-03    rms(broyden)= 0.78894E-03
  rms(prec ) = 0.27794E-02
  weight for this iteration     100.00

 eigenvalues of (default mixing * dielectric matrix)
  average eigenvalue GAMMA=   1.6823
  2.4296  0.8134  1.8038

[...]

--------------------------------------- Iteration      3(   5)  ---------------------------------------

 eigenvalue-minimisations  : 11296
 total energy-change (2. order) : 0.6994827E-06  (-0.1370430E-06)
 number of electron       8.0000059 magnetization
 augmentation part        4.0894654 magnetization

 Free energy of the ion-electron system (eV)
  alpha Z        PSCENC =        70.89076096
  Ewald energy   TEWEN  =      -629.58106892
  -Hartree energ DENC   =       -80.55403105
  -exchange      EXHF   =         0.00000000
  -V(xc)+E(xc)   XCENC  =         4.01384681
  PAW double counting   =       558.63641640     -569.35315356
  entropy T*S    EENTRO =         0.00034290
  eigenvalues    EBANDS =        39.28850661
  atomic energy  EATOM  =       597.33035224
  Solvation  Ediel_sol  =         0.00000000
  free energy    TOTEN  =        -9.32802761 eV

  energy without entropy =       -9.32837050  energy(sigma->0) =       -9.32814191

 average (electrostatic) potential at core
  the test charge radii are     1.0103
  (the norm of the test charge is              1.0000)
       1 -42.3600

 E-fermi :   7.5972     XC(G=0): -14.5193     alpha+bet :-16.3197

[...]

 k-point   770 :      -0.4750    0.4750    0.4750
  band No.  band energies     occupation
      1       2.3485      2.00000
      2       5.5691      2.00000
      3       5.7042      2.00000
      4       7.3691      2.06847
      5       8.7103     -0.00000
      6       9.3532     -0.00000
      7      16.8180      0.00000
      8      30.0196      0.00000

 soft charge-density along one line, spin component           1
         0         1         2         3         4         5         6         7         8         9
 total charge-density along one line

------------------------ aborting loop because EDIFF is reached ----------------------------------------

  FORCE on cell =-STRESS in cart. coord.  units (eV):
  Direction    XX          YY          ZZ          XY          YZ          ZX
  Alpha Z    70.89076    70.89076    70.89076
  Ewald    -209.86036  -209.86036  -209.86036     0.00000    -0.00000    -0.00000
  Hartree    26.85673    26.85673    26.85673     0.00000     0.00000     0.00000
  E(xc)     -39.51194   -39.51194   -39.51194    -0.00001    -0.00001    -0.00001
  Local      63.16332    63.16332    63.16332     0.00000     0.00000     0.00000
  n-local   -24.62688   -24.91392   -27.23608     1.13912    -1.13551    -0.00212
  augment    37.38370    37.38370    37.38370    -0.00003    -0.00003    -0.00003
  Kinetic    74.04939    77.57427    78.34796    -0.11823     0.12016     0.02435
  Fock        0.00000     0.00000     0.00000     0.00000     0.00000     0.00000
  Total      -0.01289    -0.01289    -0.01289     0.00000     0.00000    -0.00000
  in kB      -2.18567    -2.18567    -2.18567     0.00000     0.00000    -0.00000

 VOLUME and BASIS-vectors are now :
  energy-cutoff  :      267.97
  volume of cell :        9.45
      direct lattice vectors                 reciprocal lattice vectors
     0.000000000  1.677840489  1.677840489    -0.298002106  0.298002106  0.298002106
     1.677840489 -0.000000000  1.677840489     0.298002106 -0.298002106  0.298002106
     1.677840489  1.677840489  0.000000000     0.298002106  0.298002106 -0.298002106

  length of vectors
     2.372824776  2.372824776  2.372824776     0.516154789  0.516154789  0.516154789

 FORCES acting on ions
    electron-ion (+dipol)            ewald-force                    non-local-force                 convergence-correction
   0.148E-13 0.719E-14 0.554E-14   0.977E-15 0.904E-15 0.160E-14   0.000E+00 -.808E-26 0.323E-26   0.117E-14 0.170E-13 0.185E-13
   0.148E-13 0.719E-14 0.554E-14   0.977E-15 0.904E-15 0.160E-14   0.000E+00 -.808E-26 0.323E-26   0.117E-14 0.170E-13 0.185E-13

 POSITION                                       TOTAL-FORCE (eV/Angst)
      0.00000     -0.00000      0.00000         0.000000     -0.000000     -0.000000
    total drift:                                0.000000      0.000000      0.000000

  FREE ENERGIE OF THE ION-ELECTRON SYSTEM (eV)
  free  energy   TOTEN  =        -9.32802761 eV

  energy  without entropy=       -9.32837050  energy(sigma->0) =       -9.32814191

 d Force = 0.0000000E+00[ 0.000E+00, 0.000E+00]  d Energy = 0.2304820E-02-0.230E-02
 d Force = 0.0000000E+00[ 0.000E+00, 0.000E+00]  d Ewald  = 0.2817679E+01-0.282E+01

 reached required accuracy - stopping structural energy minimisation