 vasp.5.4.4.18Apr17-6-g9f103f2a35 (build May 20 2018 16:52:39) complex

 executed on             LinuxIFC date 2022.10.31  00:16:30

 INCAR:
 POTCAR:    PAW Fe
 POTCAR:    PAW Fe
   VRHFIN =Fe:  d7 s1

   TITEL  = PAW Fe
   POMASS =   55.847; ZVAL   =    8.000    mass and valenz
   ENMAX  =  267.969; ENMIN  =  200.977 eV
   QCUT   =   -4.438; QGAM   =    8.876    optimization parameters

   Description
     l     E      TYP  RCUT    TYP  RCUT
     2   .000     23  2.300
     2   .000     23  2.300
     0   .000     23  2.300
     0   .000     23  2.300
     1  -.200     23  2.300
     1   .000     23  2.300
     3   .000      7   .000

  PAW Fe                                :

 POSCAR: Fe bulk bcc
  positions in direct lattice
 exchange correlation table for  LEXCH =        2
   RHO(1)=    0.500       N(1)  =     2000
   RHO(2)=  100.500       N(2)  =     4000

 ion  position               nearest neighbor table
   1  0.000  0.000  0.000-

  LATTYP: Found a body centered cubic cell.
 ALAT       =     2.7900000000

  Lattice vectors:

 A1 = (  -1.3950000000,   1.3950000000,   1.3950000000)
 A2 = (   1.3950000000,  -1.3950000000,   1.3950000000)
 A3 = (   1.3950000000,   1.3950000000,  -1.3950000000)

Analysis of symmetry for initial positions (statically):
 Subroutine PRICEL returns:
 Original cell was already a primitive cell.

 Routine SETGRP: Setting up the symmetry group for a
 body centered cubic supercell.

 Subroutine GETGRP returns: Found 48 space group operations
 (whereof 48 operations were pure point group operations)
 out of a pool of 48 trial point group operations.

The static configuration has the point symmetry O_h .

Analysis of symmetry for dynamics (positions and initial velocities):
 Subroutine PRICEL returns:
 Original cell was already a primitive cell.

 Routine SETGRP: Setting up the symmetry group for a
 body centered cubic supercell.

 Subroutine GETGRP returns: Found 48 space group operations
 (whereof 48 operations were pure point group operations)
 out of a pool of 48 trial point group operations.

The dynamic configuration has the point symmetry O_h .

 Subroutine INISYM returns: Found 48 space group operations
 (whereof 48 operations are pure point group operations),
 and found     1 'primitive' translations

 KPOINTS: 20x20x20

Automatic generation of k-mesh.
Space group operators:
 irot       det(A)        alpha          n_x          n_y          n_z        tau_x        tau_y        tau_z
    1     1.000000     0.000001     1.000000     0.000000     0.000000     0.000000     0.000000     0.000000
    2    -1.000000     0.000001     1.000000     0.000000     0.000000     0.000000     0.000000     0.000000
    3     1.000000   120.000000    -0.577350    -0.577350    -0.577350     0.000000     0.000000     0.000000
    4    -1.000000   120.000000    -0.577350    -0.577350    -0.577350     0.000000     0.000000     0.000000
    5     1.000000   120.000000     0.577350     0.577350     0.577350     0.000000     0.000000     0.000000
    6    -1.000000   120.000000     0.577350     0.577350     0.577350     0.000000     0.000000     0.000000
    7     1.000000    90.000000     0.000000     0.000000    -1.000000     0.000000     0.000000     0.000000
    8    -1.000000    90.000000     0.000000     0.000000    -1.000000     0.000000     0.000000     0.000000
    9     1.000000   180.000000     0.000000     0.707107     0.707107     0.000000     0.000000     0.000000
   10    -1.000000   180.000000     0.000000     0.707107     0.707107     0.000000     0.000000     0.000000
   11     1.000000    90.000000     0.000000     1.000000     0.000000     0.000000     0.000000     0.000000
   12    -1.000000    90.000000     0.000000     1.000000     0.000000     0.000000     0.000000     0.000000
   13     1.000000   180.000000     0.000000     0.000000     1.000000     0.000000     0.000000     0.000000
   14    -1.000000   180.000000     0.000000     0.000000     1.000000     0.000000     0.000000     0.000000
   15     1.000000   120.000000    -0.577350     0.577350     0.577350     0.000000     0.000000     0.000000
   16    -1.000000   120.000000    -0.577350     0.577350     0.577350     0.000000     0.000000     0.000000
   17     1.000000   120.000000    -0.577350     0.577350    -0.577350     0.000000     0.000000     0.000000
   18    -1.000000   120.000000    -0.577350     0.577350    -0.577350     0.000000     0.000000     0.000000
   19     1.000000    90.000000     0.000000     0.000000     1.000000     0.000000     0.000000     0.000000
   20    -1.000000    90.000000     0.000000     0.000000     1.000000     0.000000     0.000000     0.000000
   21     1.000000    90.000000    -1.000000     0.000000     0.000000     0.000000     0.000000     0.000000
   22    -1.000000    90.000000    -1.000000     0.000000     0.000000     0.000000     0.000000     0.000000
   23     1.000000   180.000000     0.707107     0.000000     0.707107     0.000000     0.000000     0.000000
   24    -1.000000   180.000000     0.707107     0.000000     0.707107     0.000000     0.000000     0.000000
   25     1.000000   120.000000     0.577350    -0.577350     0.577350     0.000000     0.000000     0.000000
   26    -1.000000   120.000000     0.577350    -0.577350     0.577350     0.000000     0.000000     0.000000
   27     1.000000   120.000000    -0.577350    -0.577350     0.577350     0.000000     0.000000     0.000000
   28    -1.000000   120.000000    -0.577350    -0.577350     0.577350     0.000000     0.000000     0.000000
   29     1.000000   180.000000     1.000000     0.000000     0.000000     0.000000     0.000000     0.000000
   30    -1.000000   180.000000     1.000000     0.000000     0.000000     0.000000     0.000000     0.000000
   31     1.000000    90.000000     0.000000    -1.000000     0.000000     0.000000     0.000000     0.000000
   32    -1.000000    90.000000     0.000000    -1.000000     0.000000     0.000000     0.000000     0.000000
   33     1.000000   180.000000     0.707107     0.707107     0.000000     0.000000     0.000000     0.000000
   34    -1.000000   180.000000     0.707107     0.707107     0.000000     0.000000     0.000000     0.000000
   35     1.000000    90.000000     1.000000     0.000000     0.000000     0.000000     0.000000     0.000000
   36    -1.000000    90.000000     1.000000     0.000000     0.000000     0.000000     0.000000     0.000000
   37     1.000000   120.000000     0.577350    -0.577350    -0.577350     0.000000     0.000000     0.000000
   38    -1.000000   120.000000     0.577350    -0.577350    -0.577350     0.000000     0.000000     0.000000
   39     1.000000   180.000000     0.000000     1.000000     0.000000     0.000000     0.000000     0.000000
   40    -1.000000   180.000000     0.000000     1.000000     0.000000     0.000000     0.000000     0.000000
   41     1.000000   120.000000     0.577350     0.577350    -0.577350     0.000000     0.000000     0.000000
   42    -1.000000   120.000000     0.577350     0.577350    -0.577350     0.000000     0.000000     0.000000
   43     1.000000   180.000000     0.000000    -0.707107     0.707107     0.000000     0.000000     0.000000
   44    -1.000000   180.000000     0.000000    -0.707107     0.707107     0.000000     0.000000     0.000000
   45     1.000000   180.000000     0.707107    -0.707107     0.000000     0.000000     0.000000     0.000000
   46    -1.000000   180.000000     0.707107    -0.707107     0.000000     0.000000     0.000000     0.000000
   47     1.000000   180.000000     0.707107     0.000000    -0.707107     0.000000     0.000000     0.000000
   48    -1.000000   180.000000     0.707107     0.000000    -0.707107     0.000000     0.000000     0.000000

 Subroutine IBZKPT returns following result:

 Found    250 irreducible k-points:

 Following reciprocal coordinates:
            Coordinates               Weight
  0.025000  0.025000  0.025000      8.000000
  0.075000  0.025000  0.025000     24.000000
  0.125000  0.025000  0.025000     24.000000
  0.175000  0.025000  0.025000     24.000000
  0.225000  0.025000  0.025000     24.000000
  0.275000  0.025000  0.025000     24.000000
  0.325000  0.025000  0.025000     24.000000
  0.375000  0.025000  0.025000     24.000000
  0.425000  0.025000  0.025000     24.000000
  0.475000  0.025000  0.025000     12.000000
 -0.025000  0.025000  0.025000      6.000000
  0.075000  0.075000  0.025000     24.000000
  0.125000  0.075000  0.025000     48.000000
  0.175000  0.075000  0.025000     48.000000
  0.225000  0.075000  0.025000     48.000000
  0.275000  0.075000  0.025000     48.000000
  0.325000  0.075000  0.025000     48.000000
  0.375000  0.075000  0.025000     48.000000
  0.425000  0.075000  0.025000     48.000000
 -0.075000  0.075000  0.025000     24.000000
  0.125000  0.125000  0.025000     24.000000
  0.175000  0.125000  0.025000     48.000000
  0.225000  0.125000  0.025000     48.000000
  0.275000  0.125000  0.025000     48.000000
  0.325000  0.125000  0.025000     48.000000
  0.375000  0.125000  0.025000     48.000000
  0.425000  0.125000  0.025000     24.000000
 -0.125000  0.125000  0.025000     24.000000
 -0.075000  0.125000  0.025000     24.000000
  0.175000  0.175000  0.025000     24.000000
  0.225000  0.175000  0.025000     48.000000
  0.275000  0.175000  0.025000     48.000000
  0.325000  0.175000  0.025000     48.000000
  0.375000  0.175000  0.025000     48.000000
 -0.175000  0.175000  0.025000     24.000000
 -0.125000  0.175000  0.025000     48.000000
  0.225000  0.225000  0.025000     24.000000
  0.275000  0.225000  0.025000     48.000000
  0.325000  0.225000  0.025000     48.000000
  0.375000  0.225000  0.025000     24.000000
 -0.225000  0.225000  0.025000     24.000000
 -0.175000  0.225000  0.025000     48.000000
 -0.125000  0.225000  0.025000     24.000000
  0.275000  0.275000  0.025000     24.000000
  0.325000  0.275000  0.025000     48.000000
 -0.275000  0.275000  0.025000     24.000000
 -0.225000  0.275000  0.025000     48.000000
 -0.175000  0.275000  0.025000     48.000000
  0.325000  0.325000  0.025000      8.000000
 -0.325000  0.325000  0.025000     24.000000
 -0.275000  0.325000  0.025000     48.000000
 -0.225000  0.325000  0.025000     48.000000
 -0.175000  0.325000  0.025000     24.000000
 -0.375000  0.375000  0.025000     24.000000
 -0.325000  0.375000  0.025000     48.000000
 -0.275000  0.375000  0.025000     48.000000
 -0.225000  0.375000  0.025000     48.000000
 -0.425000  0.425000  0.025000     24.000000
 -0.375000  0.425000  0.025000     48.000000
 -0.325000  0.425000  0.025000     48.000000
[...]
 -0.425000  0.425000  0.325000     24.000000
 -0.375000  0.425000  0.325000     24.000000
 -0.475000  0.475000  0.325000     24.000000
 -0.425000  0.475000  0.325000     48.000000
 -0.475000 -0.475000  0.325000     24.000000
 -0.425000 -0.475000  0.325000     24.000000
 -0.375000  0.375000  0.375000      6.000000
 -0.425000  0.425000  0.375000     24.000000
 -0.475000  0.475000  0.375000     24.000000
 -0.425000  0.475000  0.375000     24.000000
 -0.475000 -0.475000  0.375000     24.000000
 -0.425000  0.425000  0.425000      6.000000
 -0.475000  0.475000  0.425000     24.000000
[...]
  -0.47500000  0.47500000  0.37500000       0.003
  -0.42500000  0.47500000  0.37500000       0.003
  -0.47500000 -0.47500000  0.37500000       0.003
  -0.42500000  0.42500000  0.42500000       0.001
  -0.47500000  0.47500000  0.42500000       0.003
  -0.47500000 -0.47500000  0.42500000       0.001
  -0.47500000  0.47500000  0.47500000       0.001

 position of ions in fractional coordinates (direct lattice)
   0.00000000  0.00000000  0.00000000

 position of ions in cartesian coordinates  (Angst):
   0.00000000  0.00000000  0.00000000

 k-point  1 :   0.0250 0.0250 0.0250  plane waves:     105
 k-point  2 :   0.0750 0.0250 0.0250  plane waves:     107
 k-point  3 :   0.1250 0.0250 0.0250  plane waves:     109
 k-point  4 :   0.1750 0.0250 0.0250  plane waves:     108
 k-point  5 :   0.2250 0.0250 0.0250  plane waves:     107
 k-point  6 :   0.2750 0.0250 0.0250  plane waves:     109
 k-point  7 :   0.3250 0.0250 0.0250  plane waves:     111
 k-point  8 :   0.3750 0.0250 0.0250  plane waves:     112
 k-point  9 :   0.4250 0.0250 0.0250  plane waves:     112
 k-point 10 :   0.4750 0.0250 0.0250  plane waves:     114
 k-point 11 :  -0.0250 0.0250 0.0250  plane waves:     103
 k-point 12 :   0.0750 0.0750 0.0250  plane waves:     109
 k-point 13 :   0.1250 0.0750 0.0250  plane waves:     107
 k-point 14 :   0.1750 0.0750 0.0250  plane waves:     108
 k-point 15 :   0.2250 0.0750 0.0250  plane waves:     107
 k-point 16 :   0.2750 0.0750 0.0250  plane waves:     108
 k-point 17 :   0.3250 0.0750 0.0250  plane waves:     109
 k-point 18 :   0.3750 0.0750 0.0250  plane waves:     109
 k-point 19 :   0.4250 0.0750 0.0250  plane waves:     110
 k-point 20 :  -0.0750 0.0750 0.0250  plane waves:     105
 k-point 21 :   0.1250 0.1250 0.0250  plane waves:     106
 k-point 22 :   0.1750 0.1250 0.0250  plane waves:     109
 k-point 23 :   0.2250 0.1250 0.0250  plane waves:     107
 k-point 24 :   0.2750 0.1250 0.0250  plane waves:     107
 k-point 25 :   0.3250 0.1250 0.0250  plane waves:     110
 k-point 26 :   0.3750 0.1250 0.0250  plane waves:     109
 k-point 27 :   0.4250 0.1250 0.0250  plane waves:     109
 k-point 28 :  -0.1250 0.1250 0.0250  plane waves:     107
 k-point 29 :  -0.0750 0.1250 0.0250  plane waves:     111
 k-point 30 :   0.1750 0.1750 0.0250  plane waves:     107
 k-point 31 :   0.2250 0.1750 0.0250  plane waves:     107
 k-point 32 :   0.2750 0.1750 0.0250  plane waves:     108
 k-point 33 :   0.3250 0.1750 0.0250  plane waves:     108
 k-point 34 :   0.3750 0.1750 0.0250  plane waves:     107
 k-point 35 :  -0.1750 0.1750 0.0250  plane waves:     109
 k-point 36 :  -0.1250 0.1750 0.0250  plane waves:     109
 k-point 37 :   0.2250 0.2250 0.0250  plane waves:     106
 k-point 38 :   0.2750 0.2250 0.0250  plane waves:     106
 k-point 39 :   0.3250 0.2250 0.0250  plane waves:     107
 k-point 40 :   0.3750 0.2250 0.0250  plane waves:     108
 k-point 41 :  -0.2250 0.2250 0.0250  plane waves:     107
 k-point 42 :  -0.1750 0.2250 0.0250  plane waves:     106
 k-point 43 :  -0.1250 0.2250 0.0250  plane waves:     108
 k-point 44 :   0.2750 0.2750 0.0250  plane waves:     106
 k-point 45 :   0.3250 0.2750 0.0250  plane waves:     108
 k-point 46 :  -0.2750 0.2750 0.0250  plane waves:     110
 k-point 47 :  -0.2250 0.2750 0.0250  plane waves:     107
 k-point 48 :  -0.1750 0.2750 0.0250  plane waves:     109
 k-point 49 :   0.3250 0.3250 0.0250  plane waves:     110
 k-point 50 :  -0.3250 0.3250 0.0250  plane waves:     111
 k-point 51 :  -0.2750 0.3250 0.0250  plane waves:     107
 k-point 52 :  -0.2250 0.3250 0.0250  plane waves:     108
 k-point 53 :  -0.1750 0.3250 0.0250  plane waves:     109
 k-point 54 :  -0.3750 0.3750 0.0250  plane waves:     112
 k-point 55 :  -0.3250 0.3750 0.0250  plane waves:     108
 k-point 56 :  -0.2750 0.3750 0.0250  plane waves:     107
 k-point 57 :  -0.2250 0.3750 0.0250  plane waves:     107
 k-point 58 :  -0.4250 0.4250 0.0250  plane waves:     112
 k-point 59 :  -0.3750 0.4250 0.0250  plane waves:     109
 k-point 60 :  -0.3250 0.4250 0.0250  plane waves:     108
[...]
 k-point 85 :   0.4250 0.0750 0.0750  plane waves:     112
 k-point 86 :  -0.0750 0.0750 0.0750  plane waves:     111
 k-point 87 :   0.1250 0.1250 0.0750  plane waves:     106
 k-point 88 :   0.1750 0.1250 0.0750  plane waves:     109
 k-point 89 :   0.2250 0.1250 0.0750  plane waves:     109
 k-point 90 :   0.2750 0.1250 0.0750  plane waves:     110
 k-point 91 :   0.3250 0.1250 0.0750  plane waves:     109
 k-point 92 :   0.3750 0.1250 0.0750  plane waves:     108
 k-point 93 :  -0.1250 0.1250 0.0750  plane waves:     109
 k-point 94 :   0.1750 0.1750 0.0750  plane waves:     109
 k-point 95 :   0.2250 0.1750 0.0750  plane waves:     108
 k-point 96 :   0.2750 0.1750 0.0750  plane waves:     110
 k-point 97 :   0.3250 0.1750 0.0750  plane waves:     107
 k-point 98 :   0.3750 0.1750 0.0750  plane waves:     109
 k-point 99 :  -0.1750 0.1750 0.0750  plane waves:     107
 k-point ** :  -0.1250 0.1750 0.0750  plane waves:     109
 k-point ** :   0.2250 0.2250 0.0750  plane waves:     108
 k-point ** :   0.2750 0.2250 0.0750  plane waves:     108
 k-point ** :   0.3250 0.2250 0.0750  plane waves:     108
 k-point ** :  -0.2250 0.2250 0.0750  plane waves:     108
 k-point ** :  -0.1750 0.2250 0.0750  plane waves:     108
 k-point ** :   0.2750 0.2750 0.0750  plane waves:     108
 k-point ** :   0.3250 0.2750 0.0750  plane waves:     108
 k-point ** :  -0.2750 0.2750 0.0750  plane waves:     106
 k-point ** :  -0.2250 0.2750 0.0750  plane waves:     108
 k-point ** :  -0.1750 0.2750 0.0750  plane waves:     111
 k-point ** :  -0.3250 0.3250 0.0750  plane waves:     106
 k-point ** :  -0.2750 0.3250 0.0750  plane waves:     106
 k-point ** :  -0.2250 0.3250 0.0750  plane waves:     109
 k-point ** :  -0.3750 0.3750 0.0750  plane waves:     107
 k-point ** :  -0.3250 0.3750 0.0750  plane waves:     108
 k-point ** :  -0.2750 0.3750 0.0750  plane waves:     109
 k-point ** :  -0.2250 0.3750 0.0750  plane waves:     109
 k-point ** :  -0.4250 0.4250 0.0750  plane waves:     109
 k-point ** :  -0.3750 0.4250 0.0750  plane waves:     109
 k-point ** :  -0.3250 0.4250 0.0750  plane waves:     110
 k-point ** :  -0.2750 0.4250 0.0750  plane waves:     109
 k-point ** :  -0.4750 0.4750 0.0750  plane waves:     108
 k-point ** :  -0.4250 0.4750 0.0750  plane waves:     110
 k-point ** :  -0.3750 0.4750 0.0750  plane waves:     108
 k-point ** :  -0.3250 0.4750 0.0750  plane waves:     108
 k-point ** :  -0.2750 0.4750 0.0750  plane waves:     108
 k-point ** :  -0.4750-0.4750 0.0750  plane waves:     107
 k-point ** :  -0.4250-0.4750 0.0750  plane waves:     106
 k-point ** :  -0.3750-0.4750 0.0750  plane waves:     108
 k-point ** :  -0.3250-0.4750 0.0750  plane waves:     110
 k-point ** :  -0.4250-0.4250 0.0750  plane waves:     109
 k-point ** :  -0.3750-0.4250 0.0750  plane waves:     109
 k-point ** :  -0.3250-0.4250 0.0750  plane waves:     108
 k-point ** :  -0.3750-0.3750 0.0750  plane waves:     108
 k-point ** :   0.1250 0.1250 0.1250  plane waves:     104
 k-point ** :   0.1750 0.1250 0.1250  plane waves:     106
 k-point ** :   0.2250 0.1250 0.1250  plane waves:     107
 k-point ** :   0.2750 0.1250 0.1250  plane waves:     110
 k-point ** :   0.3250 0.1250 0.1250  plane waves:     110
 k-point ** :   0.3750 0.1250 0.1250  plane waves:     106
 k-point ** :  -0.1250 0.1250 0.1250  plane waves:     111
 k-point ** :   0.1750 0.1750 0.1250  plane waves:     105
 k-point ** :   0.2250 0.1750 0.1250  plane waves:     105
 k-point ** :   0.2750 0.1750 0.1250  plane waves:     110
 k-point ** :   0.3250 0.1750 0.1250  plane waves:     108
 k-point ** :  -0.1750 0.1750 0.1250  plane waves:     112
 k-point ** :   0.2250 0.2250 0.1250  plane waves:     110
 k-point ** :   0.2750 0.2250 0.1250  plane waves:     109
 k-point ** :   0.3250 0.2250 0.1250  plane waves:     111
 k-point ** :  -0.2250 0.2250 0.1250  plane waves:     108
 k-point ** :  -0.1750 0.2250 0.1250  plane waves:     109
 k-point ** :   0.2750 0.2750 0.1250  plane waves:     109
 k-point ** :  -0.2750 0.2750 0.1250  plane waves:     106
 k-point ** :  -0.2250 0.2750 0.1250  plane waves:     108
 k-point ** :  -0.3250 0.3250 0.1250  plane waves:     106
 k-point ** :  -0.2750 0.3250 0.1250  plane waves:     107
 k-point ** :  -0.2250 0.3250 0.1250  plane waves:     107
 k-point ** :  -0.3750 0.3750 0.1250  plane waves:     111
 k-point ** :  -0.3250 0.3750 0.1250  plane waves:     108
[...]
 k-point ** :  -0.4250 0.4250 0.3250  plane waves:     109
 k-point ** :  -0.3750 0.4250 0.3250  plane waves:     110
 k-point ** :  -0.4750 0.4750 0.3250  plane waves:     110
 k-point ** :  -0.4250 0.4750 0.3250  plane waves:     111
 k-point ** :  -0.4750-0.4750 0.3250  plane waves:     110
 k-point ** :  -0.4250-0.4750 0.3250  plane waves:     110
 k-point ** :  -0.3750 0.3750 0.3750  plane waves:     108
 k-point ** :  -0.4250 0.4250 0.3750  plane waves:     111
 k-point ** :  -0.4750 0.4750 0.3750  plane waves:     112
 k-point ** :  -0.4250 0.4750 0.3750  plane waves:     112
 k-point ** :  -0.4750-0.4750 0.3750  plane waves:     114
 k-point ** :  -0.4250 0.4250 0.4250  plane waves:     112
 k-point ** :  -0.4750 0.4750 0.4250  plane waves:     116
 k-point ** :  -0.4750-0.4750 0.4250  plane waves:     116
 k-point ** :  -0.4750 0.4750 0.4750  plane waves:     116

 maximum and minimum number of plane-waves per node :       116      103

 maximum number of plane-waves:       116
 maximum index in each direction:
   IXMAX=    3   IYMAX=    3   IZMAX=    3
   IXMIN=   -3   IYMIN=   -3   IZMIN=   -3

 serial   3D FFT for wavefunctions
 parallel 3D FFT for charge:
    minimum data exchange during FFTs selected (reduces bandwidth)

 Broyden mixing: mesh for mixing (old mesh)
   NGX =  7   NGY =  7   NGZ =  7
  (NGX  = 20   NGY  = 20   NGZ  = 20)
  gives a total of    343 points

 initial charge density was supplied:
 charge density of overlapping atoms calculated
 number of electron       8.0000000 magnetization
 keeping initial charge density in first step

 Maximum index for augmentation-charges         3143 (set IRDMAX)

 First call to EWALD:  gamma=   0.800
 Maximum number of real-space cells 3x 3x 3
 Maximum number of reciprocal cells 3x 3x 3

--------------------------------------- Iteration      1(   1)  ---------------------------------------

 eigenvalue-minimisations  :  4144
 total energy-change (2. order) : 0.4099217E+01  (-0.2972503E+03)
 number of electron       8.0000000 magnetization
 augmentation part        8.0000000 magnetization

 Free energy of the ion-electron system (eV)
  alpha Z        PSCENC =        61.67214180
  Ewald energy   TEWEN  =      -601.05160851
  -Hartree energ DENC   =      -107.61692506
  -exchange      EXHF   =         0.00000000
  -V(xc)+E(xc)   XCENC  =         4.56644269
  PAW double counting   =       479.09899362     -488.38466797
  entropy T*S    EENTRO =        -0.00127600
  eigenvalues    EBANDS =        58.48576438
  atomic energy  EATOM  =       597.33035224
  Solvation  Ediel_sol  =         0.00000000
  free energy    TOTEN  =         4.09921719 eV

  energy without entropy =        4.10049319  energy(sigma->0) =        4.09964252

[...]

 eigenvalue-minimisations  :  4088
 total energy-change (2. order) :-0.1447495E+02  (-0.1406088E+02)
 number of electron       8.0000000 magnetization
 augmentation part        8.0000000 magnetization

[...]

 Broyden mixing:
  rms(total) = 0.88134E+00    rms(broyden)= 0.88101E+00
  rms(prec ) = 0.35970E+01
  weight for this iteration     100.00

[...]

 eigenvalues of (default mixing * dielectric matrix)
  average eigenvalue GAMMA=   0.8276
  0.8276

[...]

 eigenvalue-minimisations  :  4880
 total energy-change (2. order) :-0.9778757E-05  (-0.1529599E-05)
 number of electron       8.0000160 magnetization
 augmentation part        4.1169460 magnetization

 Broyden mixing:
  rms(total) = 0.99573E-03    rms(broyden)= 0.99560E-03
  rms(prec ) = 0.35301E-02
  weight for this iteration     100.00

 eigenvalues of (default mixing * dielectric matrix)
  average eigenvalue GAMMA=   1.5251
  2.5173  2.5173  1.0257  0.7374  0.8278

[...]

--------------------------------------- Iteration      1(  11)  ---------------------------------------

 eigenvalue-minimisations  :  2424
 total energy-change (2. order) : 0.8673969E-06  (-0.1681356E-06)
 number of electron       8.0000160 magnetization
 augmentation part        4.1169460 magnetization

 Free energy of the ion-electron system (eV)
  alpha Z        PSCENC =        61.67214180
  Ewald energy   TEWEN  =      -601.05160851
  -Hartree energ DENC   =       -90.95313924
  -exchange      EXHF   =         0.00000000
  -V(xc)+E(xc)   XCENC  =         3.67712873
  PAW double counting   =       524.18447044     -534.26206096
  entropy T*S    EENTRO =         0.00027302
  eigenvalues    EBANDS =        30.51310403
  atomic energy  EATOM  =       597.33035224
  Solvation  Ediel_sol  =         0.00000000
  free energy    TOTEN  =        -8.88933843 eV

  energy without entropy =       -8.88961146  energy(sigma->0) =       -8.88942944

 average (electrostatic) potential at core
  the test charge radii are     1.0103
  (the norm of the test charge is              1.0000)
       1 -43.7338

 E-fermi :   6.1750     XC(G=0): -13.7054     alpha+bet :-14.1975

 k-point     1 :       0.0250    0.0250    0.0250
  band No.  band energies     occupation
      1      -2.2902      2.00000
      2       4.4427      2.00000
      3       4.4427      2.00000
      4       4.5861      2.00000
      5       6.0968      1.60918
      6       6.0968      1.60918
      7      30.8989      0.00000
      8      30.8989      0.00000

[...]

 k-point   250 :      -0.4750    0.4750    0.4750
  band No.  band energies     occupation
      1       1.7621      2.00000
      2       1.7630      2.00000
      3       7.1275     -0.00000
      4       7.1276     -0.00000
      5       7.1632     -0.00000
      6      16.1198      0.00000
      7      16.5956      0.00000
      8      16.5956      0.00000

 soft charge-density along one line, spin component           1
         0         1         2         3         4         5         6         7         8         9
 total charge-density along one line

------------------------ aborting loop because EDIFF is reached ----------------------------------------

  FORCE on cell =-STRESS in cart. coord.  units (eV):
  Direction    XX          YY          ZZ          XY          YZ          ZX
  Alpha Z    61.67214    61.67214    61.67214
  Ewald    -200.35053  -200.35053  -200.35053    -0.00000    -0.00000     0.00000
  Hartree    30.31995    30.31995    30.31995    -0.00000    -0.00000    -0.00000
  E(xc)     -38.76039   -38.76039   -38.76039     0.00001     0.00001     0.00001
  Local      59.96123    59.96123    59.96123     0.00004     0.00004     0.00004
  n-local   -28.87144   -26.41009   -26.04944     0.25346    -1.53428    -1.44600
  augment    37.67675    37.67675    37.67675     0.00000     0.00000     0.00000
  Kinetic    74.32676    75.88980    73.38829     1.22922     2.50880     0.69167
  Fock        0.00000     0.00000     0.00000     0.00000     0.00000     0.00000
  Total      -2.05623    -2.05623    -2.05623    -0.00000     0.00000     0.00000
  in kB    -303.38872  -303.38872  -303.38872    -0.00000     0.00000     0.00000

 VOLUME and BASIS-vectors are now :
  energy-cutoff  :      267.97
  volume of cell :       10.86
      direct lattice vectors                 reciprocal lattice vectors
    -1.395000000  1.395000000  1.395000000     0.000000000  0.358422939  0.358422939
     1.395000000 -1.395000000  1.395000000     0.358422939  0.000000000  0.358422939
     1.395000000  1.395000000 -1.395000000     0.358422939  0.358422939  0.000000000

  length of vectors
     2.416210877  2.416210877  2.416210877     0.506886581  0.506886581  0.506886581

 FORCES acting on ions
    electron-ion (+dipol)            ewald-force                    non-local-force                 convergence-correction
   0.359E-14 0.149E-13 0.810E-14   -.350E-15 -.208E-14 -.965E-15   0.258E-23 -.134E-23 0.517E-24   0.160E-13 0.386E-14 0.119E-13
   0.359E-14 0.149E-13 0.810E-14   -.350E-15 -.208E-14 -.965E-15   0.258E-23 -.134E-23 0.517E-24   0.160E-13 0.386E-14 0.119E-13

 POSITION                                       TOTAL-FORCE (eV/Angst)
      0.00000      0.00000      0.00000         0.000000      0.000000     -0.000000
    total drift:                                0.000000      0.000000      0.000000

  FREE ENERGIE OF THE ION-ELECTRON SYSTEM (eV)
  free  energy   TOTEN  =        -8.88933843 eV

  energy  without entropy=       -8.88961146  energy(sigma->0) =       -8.88942944