 vasp.5.4.4.18Apr17-6-g9f103f2a35 (build May 20 2018 16:52:39) complex

 executed on             LinuxIFC date 2022.11.17  21:34:40

 INCAR:
 POTCAR:    PAW Nb_pv 09Jan2002

 POTCAR:    PAW Nb_pv 09Jan2002
   VRHFIN =Nb: s1d4

   TITEL  = PAW Nb_pv 09Jan2002
   POMASS =   92.910; ZVAL   =   11.000    mass and valenz
   ENMAX  =  207.263; ENMIN  =  155.447 eV

  PAW Nb_pv 09Jan2002                   :

 POSCAR: sic2 Nb
  positions in direct lattice
 exchange correlation table for  LEXCH =        2
   RHO(1)=    0.500       N(1)  =     2000
   RHO(2)=  100.500       N(2)  =     4000

 ion  position               nearest neighbor table
   1  0.000  0.000  0.000-   2 2.86   2 2.86   2 2.86   2 2.86   2 2.86   2 2.86   2 2.86   2 2.86

   2  0.500  0.500  0.500-   1 2.86   1 2.86   1 2.86   1 2.86   1 2.86   1 2.86   1 2.86   1 2.86

  LATTYP: Found a simple cubic cell.
 ALAT       =     3.3008000000

  Lattice vectors:

 A1 = (   3.3008000000,   0.0000000000,   0.0000000000)
 A2 = (   0.0000000000,   3.3008000000,   0.0000000000)
 A3 = (   0.0000000000,   0.0000000000,   3.3008000000)

Analysis of symmetry for initial positions (statically):
 Subroutine PRICEL returns following result:

  LATTYP: Found a body centered cubic cell.
 ALAT       =     3.3008000000

[...]

   2 primitive cells build up your supercell.

 Routine SETGRP: Setting up the symmetry group for a
 simple cubic supercell.

 Subroutine GETGRP returns: Found 48 space group operations
 (whereof 48 operations were pure point group operations)
 out of a pool of 48 trial point group operations.

The static configuration has the point symmetry O_h .

Analysis of symmetry for dynamics (positions and initial velocities):
 Subroutine PRICEL returns following result:

  LATTYP: Found a body centered cubic cell.
 ALAT       =     3.3008000000

  Lattice vectors:

 A1 = (   1.6504000000,   1.6504000000,   1.6504000000)
 A2 = (   1.6504000000,  -1.6504000000,  -1.6504000000)
 A3 = (  -1.6504000000,   1.6504000000,  -1.6504000000)

   2 primitive cells build up your supercell.

 Routine SETGRP: Setting up the symmetry group for a
 simple cubic supercell.

 Subroutine GETGRP returns: Found 48 space group operations
 (whereof 48 operations were pure point group operations)
 out of a pool of 48 trial point group operations.

The dynamic configuration has the point symmetry O_h .

 Subroutine INISYM returns: Found 48 space group operations
 (whereof 48 operations are pure point group operations),
 and found     2 'primitive' translations

 KPOINTS: 10*10*10

Automatic generation of k-mesh.
Space group operators:
 irot       det(A)        alpha          n_x          n_y          n_z        tau_x        tau_y        tau_z
    1     1.000000     0.000000     1.000000     0.000000     0.000000     0.000000     0.000000     0.000000
    2    -1.000000     0.000000     1.000000     0.000000     0.000000     0.000000     0.000000     0.000000
    3     1.000000   120.000000    -0.577350    -0.577350    -0.577350     0.000000     0.000000     0.000000
    4    -1.000000   120.000000    -0.577350    -0.577350    -0.577350     0.000000     0.000000     0.000000
    5     1.000000   120.000000     0.577350     0.577350     0.577350     0.000000     0.000000     0.000000
    6    -1.000000   120.000000     0.577350     0.577350     0.577350     0.000000     0.000000     0.000000
    7     1.000000    90.000000     0.000000     0.000000    -1.000000     0.000000     0.000000     0.000000
    8    -1.000000    90.000000     0.000000     0.000000    -1.000000     0.000000     0.000000     0.000000
    9     1.000000   180.000000     0.000000     0.707107     0.707107     0.000000     0.000000     0.000000
   10    -1.000000   180.000000     0.000000     0.707107     0.707107     0.000000     0.000000     0.000000
   11     1.000000    90.000000     0.000000     1.000000     0.000000     0.000000     0.000000     0.000000
   12    -1.000000    90.000000     0.000000     1.000000     0.000000     0.000000     0.000000     0.000000
   13     1.000000   180.000000     0.000000     0.000000     1.000000     0.000000     0.000000     0.000000
   14    -1.000000   180.000000     0.000000     0.000000     1.000000     0.000000     0.000000     0.000000
   15     1.000000   120.000000    -0.577350     0.577350     0.577350     0.000000     0.000000     0.000000
   16    -1.000000   120.000000    -0.577350     0.577350     0.577350     0.000000     0.000000     0.000000
   17     1.000000   120.000000    -0.577350     0.577350    -0.577350     0.000000     0.000000     0.000000
   18    -1.000000   120.000000    -0.577350     0.577350    -0.577350     0.000000     0.000000     0.000000
   19     1.000000    90.000000     0.000000     0.000000     1.000000     0.000000     0.000000     0.000000
   20    -1.000000    90.000000     0.000000     0.000000     1.000000     0.000000     0.000000     0.000000
   21     1.000000    90.000000    -1.000000     0.000000     0.000000     0.000000     0.000000     0.000000
   22    -1.000000    90.000000    -1.000000     0.000000     0.000000     0.000000     0.000000     0.000000
   23     1.000000   180.000000     0.707107     0.000000     0.707107     0.000000     0.000000     0.000000
   24    -1.000000   180.000000     0.707107     0.000000     0.707107     0.000000     0.000000     0.000000
   25     1.000000   120.000000     0.577350    -0.577350     0.577350     0.000000     0.000000     0.000000
   26    -1.000000   120.000000     0.577350    -0.577350     0.577350     0.000000     0.000000     0.000000
   27     1.000000   120.000000    -0.577350    -0.577350     0.577350     0.000000     0.000000     0.000000
   28    -1.000000   120.000000    -0.577350    -0.577350     0.577350     0.000000     0.000000     0.000000
   29     1.000000   180.000000     1.000000     0.000000     0.000000     0.000000     0.000000     0.000000
   30    -1.000000   180.000000     1.000000     0.000000     0.000000     0.000000     0.000000     0.000000
   31     1.000000    90.000000     0.000000    -1.000000     0.000000     0.000000     0.000000     0.000000
   32    -1.000000    90.000000     0.000000    -1.000000     0.000000     0.000000     0.000000     0.000000
   33     1.000000   180.000000     0.707107     0.707107     0.000000     0.000000     0.000000     0.000000
   34    -1.000000   180.000000     0.707107     0.707107     0.000000     0.000000     0.000000     0.000000
   35     1.000000    90.000000     1.000000     0.000000     0.000000     0.000000     0.000000     0.000000
   36    -1.000000    90.000000     1.000000     0.000000     0.000000     0.000000     0.000000     0.000000
   37     1.000000   120.000000     0.577350    -0.577350    -0.577350     0.000000     0.000000     0.000000
   38    -1.000000   120.000000     0.577350    -0.577350    -0.577350     0.000000     0.000000     0.000000
   39     1.000000   180.000000     0.000000     1.000000     0.000000     0.000000     0.000000     0.000000
   40    -1.000000   180.000000     0.000000     1.000000     0.000000     0.000000     0.000000     0.000000
   41     1.000000   120.000000     0.577350     0.577350    -0.577350     0.000000     0.000000     0.000000
   42    -1.000000   120.000000     0.577350     0.577350    -0.577350     0.000000     0.000000     0.000000
   43     1.000000   180.000000     0.000000    -0.707107     0.707107     0.000000     0.000000     0.000000
   44    -1.000000   180.000000     0.000000    -0.707107     0.707107     0.000000     0.000000     0.000000
   45     1.000000   180.000000     0.707107    -0.707107     0.000000     0.000000     0.000000     0.000000
   46    -1.000000   180.000000     0.707107    -0.707107     0.000000     0.000000     0.000000     0.000000
   47     1.000000   180.000000     0.707107     0.000000    -0.707107     0.000000     0.000000     0.000000
   48    -1.000000   180.000000     0.707107     0.000000    -0.707107     0.000000     0.000000     0.000000

 Subroutine IBZKPT returns following result:

 Found     35 irreducible k-points:

 Following reciprocal coordinates:
            Coordinates               Weight
  0.050000  0.050000  0.050000      8.000000
  0.150000  0.050000  0.050000     24.000000
  0.250000  0.050000  0.050000     24.000000
  0.350000  0.050000  0.050000     24.000000
  0.450000  0.050000  0.050000     24.000000
  0.150000  0.150000  0.050000     24.000000
  0.250000  0.150000  0.050000     48.000000
  0.350000  0.150000  0.050000     48.000000
  0.450000  0.150000  0.050000     48.000000
  0.250000  0.250000  0.050000     24.000000
  0.350000  0.250000  0.050000     48.000000
  0.450000  0.250000  0.050000     48.000000
  0.350000  0.350000  0.050000     24.000000
  0.450000  0.350000  0.050000     48.000000
  0.450000  0.450000  0.050000     24.000000
  0.150000  0.150000  0.150000      8.000000
  0.250000  0.150000  0.150000     24.000000
  0.350000  0.150000  0.150000     24.000000
  0.450000  0.150000  0.150000     24.000000
  0.250000  0.250000  0.150000     24.000000
  0.350000  0.250000  0.150000     48.000000
  0.450000  0.250000  0.150000     48.000000
  0.350000  0.350000  0.150000     24.000000
  0.450000  0.350000  0.150000     48.000000
  0.450000  0.450000  0.150000     24.000000
  0.250000  0.250000  0.250000      8.000000
  0.350000  0.250000  0.250000     24.000000
  0.450000  0.250000  0.250000     24.000000
  0.350000  0.350000  0.250000     24.000000
  0.450000  0.350000  0.250000     48.000000
  0.450000  0.450000  0.250000     24.000000
  0.350000  0.350000  0.350000      8.000000
  0.450000  0.350000  0.350000     24.000000
  0.450000  0.450000  0.350000     24.000000
  0.450000  0.450000  0.450000      8.000000

 Following cartesian coordinates:
            Coordinates               Weight
  0.050000  0.050000  0.050000      8.000000
  0.150000  0.050000  0.050000     24.000000
  0.250000  0.050000  0.050000     24.000000
  0.350000  0.050000  0.050000     24.000000
  0.450000  0.050000  0.050000     24.000000
  0.150000  0.150000  0.050000     24.000000
  0.250000  0.150000  0.050000     48.000000
  0.350000  0.150000  0.050000     48.000000
  0.450000  0.150000  0.050000     48.000000
  0.250000  0.250000  0.050000     24.000000
  0.350000  0.250000  0.050000     48.000000
  0.450000  0.250000  0.050000     48.000000
  0.350000  0.350000  0.050000     24.000000
  0.450000  0.350000  0.050000     48.000000
  0.450000  0.450000  0.050000     24.000000
  0.150000  0.150000  0.150000      8.000000
  0.250000  0.150000  0.150000     24.000000
  0.350000  0.150000  0.150000     24.000000
  0.450000  0.150000  0.150000     24.000000
  0.250000  0.250000  0.150000     24.000000
  0.350000  0.250000  0.150000     48.000000
  0.450000  0.250000  0.150000     48.000000
  0.350000  0.350000  0.150000     24.000000
  0.450000  0.350000  0.150000     48.000000
  0.450000  0.450000  0.150000     24.000000
  0.250000  0.250000  0.250000      8.000000
  0.350000  0.250000  0.250000     24.000000
  0.450000  0.250000  0.250000     24.000000
  0.350000  0.350000  0.250000     24.000000
  0.450000  0.350000  0.250000     48.000000
[...]
   (improved forces if not selfconsistent)
 use of overlap-Matrix (Vanderbilt PP)
 Fermi weights with tetrahedron method with Bloechl corrections

  energy-cutoff  :      300.00
  volume of cell :       35.96
      direct lattice vectors                 reciprocal lattice vectors
     3.300800000  0.000000000  0.000000000     0.302956859  0.000000000  0.000000000
     0.000000000  3.300800000  0.000000000     0.000000000  0.302956859  0.000000000
     0.000000000  0.000000000  3.300800000     0.000000000  0.000000000  0.302956859

  length of vectors
     3.300800000  3.300800000  3.300800000     0.302956859  0.302956859  0.302956859

 k-points in units of 2pi/SCALE and weight: 10*10*10
   0.05000000  0.05000000  0.05000000       0.008
   0.15000000  0.05000000  0.05000000       0.024
   0.25000000  0.05000000  0.05000000       0.024
   0.35000000  0.05000000  0.05000000       0.024
   0.45000000  0.05000000  0.05000000       0.024
   0.15000000  0.15000000  0.05000000       0.024
   0.25000000  0.15000000  0.05000000       0.048
   0.35000000  0.15000000  0.05000000       0.048
   0.45000000  0.15000000  0.05000000       0.048
   0.25000000  0.25000000  0.05000000       0.024
   0.35000000  0.25000000  0.05000000       0.048
   0.45000000  0.25000000  0.05000000       0.048
   0.35000000  0.35000000  0.05000000       0.024
   0.45000000  0.35000000  0.05000000       0.048
   0.45000000  0.45000000  0.05000000       0.024
   0.15000000  0.15000000  0.15000000       0.008
   0.25000000  0.15000000  0.15000000       0.024
   0.35000000  0.15000000  0.15000000       0.024
   0.45000000  0.15000000  0.15000000       0.024
   0.25000000  0.25000000  0.15000000       0.024
   0.35000000  0.25000000  0.15000000       0.048
   0.45000000  0.25000000  0.15000000       0.048
   0.35000000  0.35000000  0.15000000       0.024
   0.45000000  0.35000000  0.15000000       0.048
   0.45000000  0.45000000  0.15000000       0.024
   0.25000000  0.25000000  0.25000000       0.008
   0.35000000  0.25000000  0.25000000       0.024
   0.45000000  0.25000000  0.25000000       0.024
   0.35000000  0.35000000  0.25000000       0.024
   0.45000000  0.35000000  0.25000000       0.048
   0.45000000  0.45000000  0.25000000       0.024
   0.35000000  0.35000000  0.35000000       0.008
   0.45000000  0.35000000  0.35000000       0.024
   0.45000000  0.45000000  0.35000000       0.024
   0.45000000  0.45000000  0.45000000       0.008

 k-points in reciprocal lattice and weights: 10*10*10
   0.05000000  0.05000000  0.05000000       0.008
   0.15000000  0.05000000  0.05000000       0.024
   0.25000000  0.05000000  0.05000000       0.024
   0.35000000  0.05000000  0.05000000       0.024
   0.45000000  0.05000000  0.05000000       0.024
   0.15000000  0.15000000  0.05000000       0.024
   0.25000000  0.15000000  0.05000000       0.048
   0.35000000  0.15000000  0.05000000       0.048
   0.45000000  0.15000000  0.05000000       0.048
   0.25000000  0.25000000  0.05000000       0.024
   0.35000000  0.25000000  0.05000000       0.048
   0.45000000  0.25000000  0.05000000       0.048
   0.35000000  0.35000000  0.05000000       0.024
   0.45000000  0.35000000  0.05000000       0.048
   0.45000000  0.45000000  0.05000000       0.024
   0.15000000  0.15000000  0.15000000       0.008
   0.25000000  0.15000000  0.15000000       0.024
   0.35000000  0.15000000  0.15000000       0.024
   0.45000000  0.15000000  0.15000000       0.024
   0.25000000  0.25000000  0.15000000       0.024
   0.35000000  0.25000000  0.15000000       0.048
   0.45000000  0.25000000  0.15000000       0.048
   0.35000000  0.35000000  0.15000000       0.024
   0.45000000  0.35000000  0.15000000       0.048
   0.45000000  0.45000000  0.15000000       0.024
   0.25000000  0.25000000  0.25000000       0.008
   0.35000000  0.25000000  0.25000000       0.024
   0.45000000  0.25000000  0.25000000       0.024
   0.35000000  0.35000000  0.25000000       0.024
   0.45000000  0.35000000  0.25000000       0.048
   0.45000000  0.45000000  0.25000000       0.024
   0.35000000  0.35000000  0.35000000       0.008
   0.45000000  0.35000000  0.35000000       0.024
   0.45000000  0.45000000  0.35000000       0.024
   0.45000000  0.45000000  0.45000000       0.008

 position of ions in fractional coordinates (direct lattice)
   0.00000000  0.00000000  0.00000000
   0.50000000  0.50000000  0.50000000

 position of ions in cartesian coordinates  (Angst):
   0.00000000  0.00000000  0.00000000
   1.65040000  1.65040000  1.65040000

 k-point  1 :   0.0500 0.0500 0.0500  plane waves:     443
 k-point  2 :   0.1500 0.0500 0.0500  plane waves:     434
 k-point  3 :   0.2500 0.0500 0.0500  plane waves:     428
 k-point  4 :   0.3500 0.0500 0.0500  plane waves:     428
 k-point  5 :   0.4500 0.0500 0.0500  plane waves:     423
 k-point  6 :   0.1500 0.1500 0.0500  plane waves:     425
 k-point  7 :   0.2500 0.1500 0.0500  plane waves:     429
 k-point  8 :   0.3500 0.1500 0.0500  plane waves:     425
 k-point  9 :   0.4500 0.1500 0.0500  plane waves:     429
 k-point 10 :   0.2500 0.2500 0.0500  plane waves:     422
 k-point 11 :   0.3500 0.2500 0.0500  plane waves:     421
 k-point 12 :   0.4500 0.2500 0.0500  plane waves:     426
 k-point 13 :   0.3500 0.3500 0.0500  plane waves:     417
 k-point 14 :   0.4500 0.3500 0.0500  plane waves:     421
 k-point 15 :   0.4500 0.4500 0.0500  plane waves:     415
 k-point 16 :   0.1500 0.1500 0.1500  plane waves:     428
 k-point 17 :   0.2500 0.1500 0.1500  plane waves:     424
 k-point 18 :   0.3500 0.1500 0.1500  plane waves:     426
 k-point 19 :   0.4500 0.1500 0.1500  plane waves:     424
 k-point 20 :   0.2500 0.2500 0.1500  plane waves:     420
 k-point 21 :   0.3500 0.2500 0.1500  plane waves:     422
 k-point 22 :   0.4500 0.2500 0.1500  plane waves:     427
 k-point 23 :   0.3500 0.3500 0.1500  plane waves:     421
 k-point 24 :   0.4500 0.3500 0.1500  plane waves:     420
 k-point 25 :   0.4500 0.4500 0.1500  plane waves:     421
 k-point 26 :   0.2500 0.2500 0.2500  plane waves:     431
 k-point 27 :   0.3500 0.2500 0.2500  plane waves:     424
 k-point 28 :   0.4500 0.2500 0.2500  plane waves:     429
 k-point 29 :   0.3500 0.3500 0.2500  plane waves:     424
 k-point 30 :   0.4500 0.3500 0.2500  plane waves:     423
 k-point 31 :   0.4500 0.4500 0.2500  plane waves:     424
 k-point 32 :   0.3500 0.3500 0.3500  plane waves:     420
 k-point 33 :   0.4500 0.3500 0.3500  plane waves:     424
 k-point 34 :   0.4500 0.4500 0.3500  plane waves:     428
 k-point 35 :   0.4500 0.4500 0.4500  plane waves:     432

 maximum and minimum number of plane-waves per node :       443      415

 maximum number of plane-waves:       443
 maximum index in each direction:
   IXMAX=    4   IYMAX=    4   IZMAX=    4
   IXMIN=   -5   IYMIN=   -5   IZMIN=   -5

 serial   3D FFT for wavefunctions
 parallel 3D FFT for charge:
    minimum data exchange during FFTs selected (reduces bandwidth)

 Broyden mixing: mesh for mixing (old mesh)
   NGX =  9   NGY =  9   NGZ =  9
  (NGX  = 28   NGY  = 28   NGZ  = 28)
  gives a total of    729 points

 initial charge density was supplied:
 charge density of overlapping atoms calculated
 number of electron      22.0000000 magnetization
 keeping initial charge density in first step

 Maximum index for augmentation-charges          341 (set IRDMAX)

 First call to EWALD:  gamma=   0.537
 Maximum number of real-space cells 3x 3x 3
 Maximum number of reciprocal cells 3x 3x 3

--------------------------------------- Iteration      1(   1)  ---------------------------------------

 BZINTS: Fermi energy:  6.930135; 22.000000 electrons
         Band energy:-230.006939;  BLOECHL correction: -0.108348

 eigenvalue-minimisations  :  2880
 total energy-change (2. order) :-0.2369703E+01  (-0.1095258E+04)
 number of electron      22.0000000 magnetization
 augmentation part       22.0000000 magnetization

 Free energy of the ion-electron system (eV)
  alpha Z        PSCENC =       249.60523850
  Ewald energy   TEWEN  =     -1921.02116984
  -Hartree energ DENC   =      -271.93837114
  -exchange      EXHF   =         0.00000000
  -V(xc)+E(xc)   XCENC  =        54.59193041
  PAW double counting   =      1667.18158126    -1643.50825161
  entropy T*S    EENTRO =         0.00000000
  eigenvalues    EBANDS =      -230.00693922
  atomic energy  EATOM  =      2092.72627849
  Solvation  Ediel_sol  =         0.00000000
  free energy    TOTEN  =        -2.36970316 eV

  energy without entropy =       -2.36970316  energy(sigma->0) =       -2.36970316

[...]

 Broyden mixing:
  rms(total) = 0.25743E+01    rms(broyden)= 0.25743E+01
  rms(prec ) = 0.29636E+01
  weight for this iteration     100.00

[...]

 eigenvalue-minimisations  :  4840
 total energy-change (2. order) : 0.8804224E+00  (-0.1347860E+00)
 number of electron      22.0000104 magnetization
 augmentation part        7.9466571 magnetization

[...]

 eigenvalues of (default mixing * dielectric matrix)
  average eigenvalue GAMMA=   1.8107
  1.8107

[...]

 eigenvalue-minimisations  :  2200
 total energy-change (2. order) : 0.1840717E-06  (-0.4689614E-08)
 number of electron      22.0000104 magnetization
 augmentation part        8.0608217 magnetization

 Broyden mixing:
  rms(total) = 0.26170E-05    rms(broyden)= 0.25751E-05
  rms(prec ) = 0.26686E-05
  weight for this iteration     100.00

 eigenvalues of (default mixing * dielectric matrix)
  average eigenvalue GAMMA=   1.7587
  2.5995  2.4689  2.4689  1.5975  1.0039  1.0039  1.1685

[...]

--------------------------------------- Iteration      1(  13)  ---------------------------------------

 BZINTS: Fermi energy:  4.852260; 22.000000 electrons
         Band energy:-272.764282;  BLOECHL correction: -0.127326

 eigenvalue-minimisations  :  1400
 total energy-change (2. order) :-0.1727130E-08  (-0.5364375E-10)
 number of electron      22.0000104 magnetization
 augmentation part        8.0608217 magnetization

 Free energy of the ion-electron system (eV)
  alpha Z        PSCENC =       249.60523850
  Ewald energy   TEWEN  =     -1921.02116984
  -Hartree energ DENC   =      -240.38184002
  -exchange      EXHF   =         0.00000000
  -V(xc)+E(xc)   XCENC  =        52.88081839
  PAW double counting   =      3000.08203902    -2983.40856168
  entropy T*S    EENTRO =         0.00000000
  eigenvalues    EBANDS =      -272.76428202
  atomic energy  EATOM  =      2092.72627849
  Solvation  Ediel_sol  =         0.00000000
  free energy    TOTEN  =       -22.28147916 eV

  energy without entropy =      -22.28147916  energy(sigma->0) =      -22.28147916

 average (electrostatic) potential at core
  the test charge radii are     1.2165
  (the norm of the test charge is              1.0000)
       1 -34.8991       2 -34.8991

 E-fermi :   4.8523     XC(G=0): -12.6470     alpha+bet :-12.9149

 k-point     1 :       0.0500    0.0500    0.0500
  band No.  band energies     occupation
      1     -25.6370      2.00000
      2     -25.6370      2.00000
      3     -25.5888      2.00000
      4     -24.7458      2.00000
      5     -24.6914      2.00000
      6     -24.6914      2.00000
      7      -0.9319      2.00000
      8       1.1905      2.00000
      9       1.1905      2.00000
     10       5.1001     -0.04757
     11       5.1001     -0.00668
     12       5.3509      0.00000
     13       8.0076      0.00000
     14       8.0076      0.00000
     15       9.5952      0.00000
     16      10.2753      0.00000
     17      10.2753      0.00000
     18      14.4452      0.00000
     19      14.4452      0.00000
     20      14.7192      0.00000
     21      20.5068      0.00000
     22      20.7061      0.00000
     23      20.7061      0.00000
     24      23.8276      0.00000
     25      25.7877      0.00000
     26      25.7877      0.00000
     27      29.6958      0.00000
     28      29.6958      0.00000
     29      30.2747      0.00000
     30      33.3086      0.00000
     31      35.2122      0.00000
     32      35.2122      0.00000
     33      40.2376      0.00000
     34      40.3623      0.00000
     35      40.9163      0.00000
     36      40.9163      0.00000
     37      41.8512      0.00000
     38      41.9594      0.00000
     39      41.9594      0.00000
     40      42.2464      0.00000

[...]

 k-point    35 :       0.4500    0.4500    0.4500
  band No.  band energies     occupation
      1     -25.5884      2.00000
      2     -25.4893      2.00000
      3     -25.4893      2.00000
      4     -25.2762      2.00000
      5     -25.2762      2.00000
      6     -25.1728      2.00000
      7       3.2166      2.00000
      8       3.5201      2.00000
      9       3.5201      2.00000
     10       3.9689      2.00000
     11       3.9689      2.00000
     12       4.0711      2.00000
     13       8.8783      0.00000
     14       8.8783      0.00000
     15       8.8806      0.00000
     16       8.8806      0.00000
     17      14.6347      0.00000
     18      14.6983      0.00000
     19      15.9063      0.00000
     20      16.4869      0.00000
     21      16.4869      0.00000
     22      17.6478      0.00000
     23      17.6478      0.00000
     24      18.3001      0.00000
     25      28.7140      0.00000
     26      29.4524      0.00000
     27      29.4524      0.00000
     28      31.4950      0.00000
     29      31.4950      0.00000
     30      32.4956      0.00000
     31      32.7981      0.00000
     32      33.6765      0.00000
     33      33.6765      0.00000
     34      35.1493      0.00000
     35      35.1493      0.00000
     36      35.2672      0.00000
     37      42.0642      0.00000
     38      42.0678      0.00000
     39      46.1406      0.00000
     40      46.1406      0.00000

 soft charge-density along one line, spin component           1
         0         1         2         3         4         5         6         7         8         9
 total charge-density along one line

------------------------ aborting loop because EDIFF is reached ----------------------------------------

  FORCE on cell =-STRESS in cart. coord.  units (eV):
  Direction    XX          YY          ZZ          XY          YZ          ZX
  Alpha Z   249.60524   249.60524   249.60524
  Ewald    -640.34034  -640.34034  -640.34034    -0.00000     0.00000    -0.00000
  Hartree    80.12729    80.12729    80.12729    -0.00000    -0.00000    -0.00000
  E(xc)     -93.77968   -93.77968   -93.77968    -0.00000    -0.00000     0.00000
  Local     205.58474   205.58474   205.58474     0.00000     0.00000     0.00000
  n-local   -89.43747   -84.59877   -77.89070     2.22353    -0.96513     0.50162
  augment    52.33212    52.33212    52.33212    -0.00000     0.00000     0.00000
  Kinetic   219.63135   225.11123   241.88622     3.18001    -2.08102     1.29144
  Fock        0.00000     0.00000     0.00000     0.00000     0.00000     0.00000
  Total      -1.57001    -1.57001    -1.57001    -0.00000     0.00000    -0.00000
  in kB     -69.94465   -69.94465   -69.94465    -0.00000     0.00000    -0.00000

 VOLUME and BASIS-vectors are now :
  energy-cutoff  :      300.00
  volume of cell :       35.96
      direct lattice vectors                 reciprocal lattice vectors
     3.300800000  0.000000000  0.000000000     0.302956859  0.000000000  0.000000000
     0.000000000  3.300800000  0.000000000     0.000000000  0.302956859  0.000000000
     0.000000000  0.000000000  3.300800000     0.000000000  0.000000000  0.302956859

  length of vectors
     3.300800000  3.300800000  3.300800000     0.302956859  0.302956859  0.302956859

 FORCES acting on ions
    electron-ion (+dipol)            ewald-force                    non-local-force                 convergence-correction
   -.148E-13 -.187E-13 -.175E-13   0.268E-14 -.614E-14 -.437E-14   0.000E+00 0.202E-27 0.000E+00   -.343E-13 -.890E-14 -.568E-14
   0.118E-12 0.121E-12 0.122E-12   -.201E-14 0.363E-14 0.345E-14   0.000E+00 0.202E-27 0.000E+00   -.149E-13 -.172E-13 -.299E-13
   0.103E-12 0.103E-12 0.105E-12   0.666E-15 -.251E-14 -.919E-15   0.000E+00 0.404E-27 0.000E+00   -.492E-13 -.261E-13 -.356E-13

 POSITION                                       TOTAL-FORCE (eV/Angst)
      0.00000      0.00000      0.00000         0.000000      0.000000      0.000000
      1.65040      1.65040      1.65040         0.000000      0.000000      0.000000
    total drift:                                0.000000      0.000000      0.000000

  FREE ENERGIE OF THE ION-ELECTRON SYSTEM (eV)
  free  energy   TOTEN  =       -22.28147916 eV

  energy  without entropy=      -22.28147916  energy(sigma->0) =      -22.28147916

 writing wavefunctions
 BZINTS: Fermi energy:  4.852260; 22.000000 electrons
         Band energy:-272.764282;  BLOECHL correction: -0.127326