 vasp.5.4.4.18Apr17-6-g9f103f2a35 (build May 20 2018 16:52:39) complex

 executed on             LinuxIFC date 2022.10.31  00:19:22

 INCAR:
 POTCAR:    PAW Fe
 POTCAR:    PAW Fe
   VRHFIN =Fe:  d7 s1

   TITEL  = PAW Fe
   POMASS =   55.847; ZVAL   =    8.000    mass and valenz
   ENMAX  =  267.969; ENMIN  =  200.977 eV
   QCUT   =   -4.438; QGAM   =    8.876    optimization parameters

   Description
     l     E      TYP  RCUT    TYP  RCUT
     2   .000     23  2.300
     2   .000     23  2.300
     0   .000     23  2.300
     0   .000     23  2.300
     1  -.200     23  2.300
     1   .000     23  2.300
     3   .000      7   .000

  PAW Fe                                :

 POSCAR: Fe bulk bcc
  positions in direct lattice
 exchange correlation table for  LEXCH =        2
   RHO(1)=    0.500       N(1)  =     2000
   RHO(2)=  100.500       N(2)  =     4000

 ion  position               nearest neighbor table
   1  0.000  0.000  0.000-

  LATTYP: Found a body centered cubic cell.
 ALAT       =     2.8300000000

  Lattice vectors:

 A1 = (  -1.4150000000,   1.4150000000,   1.4150000000)
 A2 = (   1.4150000000,  -1.4150000000,   1.4150000000)
 A3 = (   1.4150000000,   1.4150000000,  -1.4150000000)

Analysis of symmetry for initial positions (statically):
 Subroutine PRICEL returns:
 Original cell was already a primitive cell.

 Routine SETGRP: Setting up the symmetry group for a
 body centered cubic supercell.

 Subroutine GETGRP returns: Found 48 space group operations
 (whereof 48 operations were pure point group operations)
 out of a pool of 48 trial point group operations.

The static configuration has the point symmetry O_h .

Analysis of symmetry for dynamics (positions and initial velocities):
 Subroutine PRICEL returns:
 Original cell was already a primitive cell.

[...]

The dynamic configuration has the point symmetry O_h .

Analysis of structural, dynamic, and magnetic symmetry:
 Subroutine PRICEL returns:
 Original cell was already a primitive cell.

 Routine SETGRP: Setting up the symmetry group for a
 body centered cubic supercell.

 Subroutine GETGRP returns: Found 48 space group operations
 (whereof 48 operations were pure point group operations)
 out of a pool of 48 trial point group operations.

The magnetic configuration has the point symmetry O_h .

 Subroutine INISYM returns: Found 48 space group operations
 (whereof 48 operations are pure point group operations),
 and found     1 'primitive' translations

 KPOINTS: 20x20x20

Automatic generation of k-mesh.
Space group operators:
 irot       det(A)        alpha          n_x          n_y          n_z        tau_x        tau_y        tau_z
    1     1.000000     0.000000     1.000000     0.000000     0.000000     0.000000     0.000000     0.000000
    2    -1.000000     0.000000     1.000000     0.000000     0.000000     0.000000     0.000000     0.000000
    3     1.000000   120.000000    -0.577350    -0.577350    -0.577350     0.000000     0.000000     0.000000
    4    -1.000000   120.000000    -0.577350    -0.577350    -0.577350     0.000000     0.000000     0.000000
    5     1.000000   120.000000     0.577350     0.577350     0.577350     0.000000     0.000000     0.000000
    6    -1.000000   120.000000     0.577350     0.577350     0.577350     0.000000     0.000000     0.000000
    7     1.000000    90.000000     0.000000     0.000000    -1.000000     0.000000     0.000000     0.000000
    8    -1.000000    90.000000     0.000000     0.000000    -1.000000     0.000000     0.000000     0.000000
    9     1.000000   180.000000     0.000000     0.707107     0.707107     0.000000     0.000000     0.000000
   10    -1.000000   180.000000     0.000000     0.707107     0.707107     0.000000     0.000000     0.000000
   11     1.000000    90.000000     0.000000     1.000000     0.000000     0.000000     0.000000     0.000000
   12    -1.000000    90.000000     0.000000     1.000000     0.000000     0.000000     0.000000     0.000000
   13     1.000000   180.000000     0.000000     0.000000     1.000000     0.000000     0.000000     0.000000
   14    -1.000000   180.000000     0.000000     0.000000     1.000000     0.000000     0.000000     0.000000
   15     1.000000   120.000000    -0.577350     0.577350     0.577350     0.000000     0.000000     0.000000
   16    -1.000000   120.000000    -0.577350     0.577350     0.577350     0.000000     0.000000     0.000000
   17     1.000000   120.000000    -0.577350     0.577350    -0.577350     0.000000     0.000000     0.000000
   18    -1.000000   120.000000    -0.577350     0.577350    -0.577350     0.000000     0.000000     0.000000
   19     1.000000    90.000000     0.000000     0.000000     1.000000     0.000000     0.000000     0.000000
   20    -1.000000    90.000000     0.000000     0.000000     1.000000     0.000000     0.000000     0.000000
   21     1.000000    90.000000    -1.000000     0.000000     0.000000     0.000000     0.000000     0.000000
   22    -1.000000    90.000000    -1.000000     0.000000     0.000000     0.000000     0.000000     0.000000
   23     1.000000   180.000000     0.707107     0.000000     0.707107     0.000000     0.000000     0.000000
   24    -1.000000   180.000000     0.707107     0.000000     0.707107     0.000000     0.000000     0.000000
   25     1.000000   120.000000     0.577350    -0.577350     0.577350     0.000000     0.000000     0.000000
   26    -1.000000   120.000000     0.577350    -0.577350     0.577350     0.000000     0.000000     0.000000
   27     1.000000   120.000000    -0.577350    -0.577350     0.577350     0.000000     0.000000     0.000000
   28    -1.000000   120.000000    -0.577350    -0.577350     0.577350     0.000000     0.000000     0.000000
   29     1.000000   180.000000     1.000000     0.000000     0.000000     0.000000     0.000000     0.000000
   30    -1.000000   180.000000     1.000000     0.000000     0.000000     0.000000     0.000000     0.000000
   31     1.000000    90.000000     0.000000    -1.000000     0.000000     0.000000     0.000000     0.000000
   32    -1.000000    90.000000     0.000000    -1.000000     0.000000     0.000000     0.000000     0.000000
   33     1.000000   180.000000     0.707107     0.707107     0.000000     0.000000     0.000000     0.000000
   34    -1.000000   180.000000     0.707107     0.707107     0.000000     0.000000     0.000000     0.000000
   35     1.000000    90.000000     1.000000     0.000000     0.000000     0.000000     0.000000     0.000000
   36    -1.000000    90.000000     1.000000     0.000000     0.000000     0.000000     0.000000     0.000000
   37     1.000000   120.000000     0.577350    -0.577350    -0.577350     0.000000     0.000000     0.000000
   38    -1.000000   120.000000     0.577350    -0.577350    -0.577350     0.000000     0.000000     0.000000
   39     1.000000   180.000000     0.000000     1.000000     0.000000     0.000000     0.000000     0.000000
   40    -1.000000   180.000000     0.000000     1.000000     0.000000     0.000000     0.000000     0.000000
   41     1.000000   120.000000     0.577350     0.577350    -0.577350     0.000000     0.000000     0.000000
   42    -1.000000   120.000000     0.577350     0.577350    -0.577350     0.000000     0.000000     0.000000
   43     1.000000   180.000000     0.000000    -0.707107     0.707107     0.000000     0.000000     0.000000
   44    -1.000000   180.000000     0.000000    -0.707107     0.707107     0.000000     0.000000     0.000000
   45     1.000000   180.000000     0.707107    -0.707107     0.000000     0.000000     0.000000     0.000000
   46    -1.000000   180.000000     0.707107    -0.707107     0.000000     0.000000     0.000000     0.000000
   47     1.000000   180.000000     0.707107     0.000000    -0.707107     0.000000     0.000000     0.000000
   48    -1.000000   180.000000     0.707107     0.000000    -0.707107     0.000000     0.000000     0.000000

 Subroutine IBZKPT returns following result:

 Found    250 irreducible k-points:

 Following reciprocal coordinates:
            Coordinates               Weight
  0.025000  0.025000  0.025000      8.000000
  0.075000  0.025000  0.025000     24.000000
  0.125000  0.025000  0.025000     24.000000
  0.175000  0.025000  0.025000     24.000000
  0.225000  0.025000  0.025000     24.000000
  0.275000  0.025000  0.025000     24.000000
  0.325000  0.025000  0.025000     24.000000
  0.375000  0.025000  0.025000     24.000000
  0.425000  0.025000  0.025000     24.000000
  0.475000  0.025000  0.025000     12.000000
 -0.025000  0.025000  0.025000      6.000000
  0.075000  0.075000  0.025000     24.000000
  0.125000  0.075000  0.025000     48.000000
  0.175000  0.075000  0.025000     48.000000
  0.225000  0.075000  0.025000     48.000000
  0.275000  0.075000  0.025000     48.000000
  0.325000  0.075000  0.025000     48.000000
  0.375000  0.075000  0.025000     48.000000
  0.425000  0.075000  0.025000     48.000000
 -0.075000  0.075000  0.025000     24.000000
  0.125000  0.125000  0.025000     24.000000
  0.175000  0.125000  0.025000     48.000000
  0.225000  0.125000  0.025000     48.000000
  0.275000  0.125000  0.025000     48.000000
  0.325000  0.125000  0.025000     48.000000
  0.375000  0.125000  0.025000     48.000000
  0.425000  0.125000  0.025000     24.000000
 -0.125000  0.125000  0.025000     24.000000
 -0.075000  0.125000  0.025000     24.000000
  0.175000  0.175000  0.025000     24.000000
  0.225000  0.175000  0.025000     48.000000
  0.275000  0.175000  0.025000     48.000000
  0.325000  0.175000  0.025000     48.000000
  0.375000  0.175000  0.025000     48.000000
 -0.175000  0.175000  0.025000     24.000000
 -0.125000  0.175000  0.025000     48.000000
  0.225000  0.225000  0.025000     24.000000
  0.275000  0.225000  0.025000     48.000000
  0.325000  0.225000  0.025000     48.000000
  0.375000  0.225000  0.025000     24.000000
 -0.225000  0.225000  0.025000     24.000000
 -0.175000  0.225000  0.025000     48.000000
 -0.125000  0.225000  0.025000     24.000000
  0.275000  0.275000  0.025000     24.000000
  0.325000  0.275000  0.025000     48.000000
 -0.275000  0.275000  0.025000     24.000000
 -0.225000  0.275000  0.025000     48.000000
 -0.175000  0.275000  0.025000     48.000000
  0.325000  0.325000  0.025000      8.000000
 -0.325000  0.325000  0.025000     24.000000
 -0.275000  0.325000  0.025000     48.000000
 -0.225000  0.325000  0.025000     48.000000
 -0.175000  0.325000  0.025000     24.000000
 -0.375000  0.375000  0.025000     24.000000
 -0.325000  0.375000  0.025000     48.000000
 -0.275000  0.375000  0.025000     48.000000
 -0.225000  0.375000  0.025000     48.000000
 -0.425000  0.425000  0.025000     24.000000
 -0.375000  0.425000  0.025000     48.000000
 -0.325000  0.425000  0.025000     48.000000
[...]
 -0.425000  0.425000  0.325000     24.000000
 -0.375000  0.425000  0.325000     24.000000
 -0.475000  0.475000  0.325000     24.000000
 -0.425000  0.475000  0.325000     48.000000
 -0.475000 -0.475000  0.325000     24.000000
 -0.425000 -0.475000  0.325000     24.000000
 -0.375000  0.375000  0.375000      6.000000
 -0.425000  0.425000  0.375000     24.000000
[...]

 k-point  1 :   0.0250 0.0250 0.0250  plane waves:     123
 k-point  2 :   0.0750 0.0250 0.0250  plane waves:     117
 k-point  3 :   0.1250 0.0250 0.0250  plane waves:     115
 k-point  4 :   0.1750 0.0250 0.0250  plane waves:     113
 k-point  5 :   0.2250 0.0250 0.0250  plane waves:     112
 k-point  6 :   0.2750 0.0250 0.0250  plane waves:     111
 k-point  7 :   0.3250 0.0250 0.0250  plane waves:     112
 k-point  8 :   0.3750 0.0250 0.0250  plane waves:     114
 k-point  9 :   0.4250 0.0250 0.0250  plane waves:     116
 k-point 10 :   0.4750 0.0250 0.0250  plane waves:     114
 k-point 11 :  -0.0250 0.0250 0.0250  plane waves:     127
 k-point 12 :   0.0750 0.0750 0.0250  plane waves:     117
 k-point 13 :   0.1250 0.0750 0.0250  plane waves:     114
 k-point 14 :   0.1750 0.0750 0.0250  plane waves:     113
 k-point 15 :   0.2250 0.0750 0.0250  plane waves:     114
 k-point 16 :   0.2750 0.0750 0.0250  plane waves:     111
 k-point 17 :   0.3250 0.0750 0.0250  plane waves:     112
 k-point 18 :   0.3750 0.0750 0.0250  plane waves:     114
 k-point 19 :   0.4250 0.0750 0.0250  plane waves:     115
 k-point 20 :  -0.0750 0.0750 0.0250  plane waves:     117
 k-point 21 :   0.1250 0.1250 0.0250  plane waves:     111
 k-point 22 :   0.1750 0.1250 0.0250  plane waves:     113
 k-point 23 :   0.2250 0.1250 0.0250  plane waves:     113
 k-point 24 :   0.2750 0.1250 0.0250  plane waves:     113
 k-point 25 :   0.3250 0.1250 0.0250  plane waves:     112
 k-point 26 :   0.3750 0.1250 0.0250  plane waves:     114
 k-point 27 :   0.4250 0.1250 0.0250  plane waves:     112
 k-point 28 :  -0.1250 0.1250 0.0250  plane waves:     115
 k-point 29 :  -0.0750 0.1250 0.0250  plane waves:     117
 k-point 30 :   0.1750 0.1750 0.0250  plane waves:     111
 k-point 31 :   0.2250 0.1750 0.0250  plane waves:     113
 k-point 32 :   0.2750 0.1750 0.0250  plane waves:     112
 k-point 33 :   0.3250 0.1750 0.0250  plane waves:     115
 k-point 34 :   0.3750 0.1750 0.0250  plane waves:     113
 k-point 35 :  -0.1750 0.1750 0.0250  plane waves:     115
 k-point 36 :  -0.1250 0.1750 0.0250  plane waves:     113
 k-point 37 :   0.2250 0.2250 0.0250  plane waves:     114
 k-point 38 :   0.2750 0.2250 0.0250  plane waves:     113
 k-point 39 :   0.3250 0.2250 0.0250  plane waves:     111
 k-point 40 :   0.3750 0.2250 0.0250  plane waves:     113
 k-point 41 :  -0.2250 0.2250 0.0250  plane waves:     112
 k-point 42 :  -0.1750 0.2250 0.0250  plane waves:     113
 k-point 43 :  -0.1250 0.2250 0.0250  plane waves:     112
 k-point 44 :   0.2750 0.2750 0.0250  plane waves:     112
 k-point 45 :   0.3250 0.2750 0.0250  plane waves:     112
 k-point 46 :  -0.2750 0.2750 0.0250  plane waves:     111
 k-point 47 :  -0.2250 0.2750 0.0250  plane waves:     114
 k-point 48 :  -0.1750 0.2750 0.0250  plane waves:     113
 k-point 49 :   0.3250 0.3250 0.0250  plane waves:     116
 k-point 50 :  -0.3250 0.3250 0.0250  plane waves:     111
 k-point 51 :  -0.2750 0.3250 0.0250  plane waves:     113
 k-point 52 :  -0.2250 0.3250 0.0250  plane waves:     112
 k-point 53 :  -0.1750 0.3250 0.0250  plane waves:     111
 k-point 54 :  -0.3750 0.3750 0.0250  plane waves:     112
 k-point 55 :  -0.3250 0.3750 0.0250  plane waves:     112
 k-point 56 :  -0.2750 0.3750 0.0250  plane waves:     111
 k-point 57 :  -0.2250 0.3750 0.0250  plane waves:     111
 k-point 58 :  -0.4250 0.4250 0.0250  plane waves:     116
 k-point 59 :  -0.3750 0.4250 0.0250  plane waves:     114
 k-point 60 :  -0.3250 0.4250 0.0250  plane waves:     113
[...]
 k-point 85 :   0.4250 0.0750 0.0750  plane waves:     112
 k-point 86 :  -0.0750 0.0750 0.0750  plane waves:     111
 k-point 87 :   0.1250 0.1250 0.0750  plane waves:     113
 k-point 88 :   0.1750 0.1250 0.0750  plane waves:     112
 k-point 89 :   0.2250 0.1250 0.0750  plane waves:     113
 k-point 90 :   0.2750 0.1250 0.0750  plane waves:     113
 k-point 91 :   0.3250 0.1250 0.0750  plane waves:     114
 k-point 92 :   0.3750 0.1250 0.0750  plane waves:     113
 k-point 93 :  -0.1250 0.1250 0.0750  plane waves:     115
 k-point 94 :   0.1750 0.1750 0.0750  plane waves:     113
 k-point 95 :   0.2250 0.1750 0.0750  plane waves:     113
 k-point 96 :   0.2750 0.1750 0.0750  plane waves:     115
 k-point 97 :   0.3250 0.1750 0.0750  plane waves:     114
 k-point 98 :   0.3750 0.1750 0.0750  plane waves:     111
 k-point 99 :  -0.1750 0.1750 0.0750  plane waves:     116
 k-point ** :  -0.1250 0.1750 0.0750  plane waves:     114
 k-point ** :   0.2250 0.2250 0.0750  plane waves:     116
 k-point ** :   0.2750 0.2250 0.0750  plane waves:     115
 k-point ** :   0.3250 0.2250 0.0750  plane waves:     114
 k-point ** :  -0.2250 0.2250 0.0750  plane waves:     114
 k-point ** :  -0.1750 0.2250 0.0750  plane waves:     113
 k-point ** :   0.2750 0.2750 0.0750  plane waves:     116
 k-point ** :   0.3250 0.2750 0.0750  plane waves:     117
 k-point ** :  -0.2750 0.2750 0.0750  plane waves:     112
 k-point ** :  -0.2250 0.2750 0.0750  plane waves:     112
 k-point ** :  -0.1750 0.2750 0.0750  plane waves:     111
 k-point ** :  -0.3250 0.3250 0.0750  plane waves:     111
 k-point ** :  -0.2750 0.3250 0.0750  plane waves:     110
 k-point ** :  -0.2250 0.3250 0.0750  plane waves:     111
 k-point ** :  -0.3750 0.3750 0.0750  plane waves:     112
 k-point ** :  -0.3250 0.3750 0.0750  plane waves:     114
 k-point ** :  -0.2750 0.3750 0.0750  plane waves:     111
 k-point ** :  -0.2250 0.3750 0.0750  plane waves:     112
 k-point ** :  -0.4250 0.4250 0.0750  plane waves:     112
 k-point ** :  -0.3750 0.4250 0.0750  plane waves:     114
 k-point ** :  -0.3250 0.4250 0.0750  plane waves:     113
 k-point ** :  -0.2750 0.4250 0.0750  plane waves:     113
 k-point ** :  -0.4750 0.4750 0.0750  plane waves:     115
 k-point ** :  -0.4250 0.4750 0.0750  plane waves:     111
 k-point ** :  -0.3750 0.4750 0.0750  plane waves:     113
 k-point ** :  -0.3250 0.4750 0.0750  plane waves:     115
 k-point ** :  -0.2750 0.4750 0.0750  plane waves:     114
 k-point ** :  -0.4750-0.4750 0.0750  plane waves:     113
 k-point ** :  -0.4250-0.4750 0.0750  plane waves:     112
 k-point ** :  -0.3750-0.4750 0.0750  plane waves:     112
 k-point ** :  -0.3250-0.4750 0.0750  plane waves:     112
 k-point ** :  -0.4250-0.4250 0.0750  plane waves:     113
 k-point ** :  -0.3750-0.4250 0.0750  plane waves:     114
 k-point ** :  -0.3250-0.4250 0.0750  plane waves:     112
 k-point ** :  -0.3750-0.3750 0.0750  plane waves:     115
 k-point ** :   0.1250 0.1250 0.1250  plane waves:     119
 k-point ** :   0.1750 0.1250 0.1250  plane waves:     113
 k-point ** :   0.2250 0.1250 0.1250  plane waves:     113
 k-point ** :   0.2750 0.1250 0.1250  plane waves:     114
 k-point ** :   0.3250 0.1250 0.1250  plane waves:     116
 k-point ** :   0.3750 0.1250 0.1250  plane waves:     116
 k-point ** :  -0.1250 0.1250 0.1250  plane waves:     112
 k-point ** :   0.1750 0.1750 0.1250  plane waves:     113
 k-point ** :   0.2250 0.1750 0.1250  plane waves:     115
 k-point ** :   0.2750 0.1750 0.1250  plane waves:     116
 k-point ** :   0.3250 0.1750 0.1250  plane waves:     117
 k-point ** :  -0.1750 0.1750 0.1250  plane waves:     112
 k-point ** :   0.2250 0.2250 0.1250  plane waves:     119
 k-point ** :   0.2750 0.2250 0.1250  plane waves:     115
 k-point ** :   0.3250 0.2250 0.1250  plane waves:     113
 k-point ** :  -0.2250 0.2250 0.1250  plane waves:     114
 k-point ** :  -0.1750 0.2250 0.1250  plane waves:     112
 k-point ** :   0.2750 0.2750 0.1250  plane waves:     115
 k-point ** :  -0.2750 0.2750 0.1250  plane waves:     110
 k-point ** :  -0.2250 0.2750 0.1250  plane waves:     112
 k-point ** :  -0.3250 0.3250 0.1250  plane waves:     112
 k-point ** :  -0.2750 0.3250 0.1250  plane waves:     112
 k-point ** :  -0.2250 0.3250 0.1250  plane waves:     112
 k-point ** :  -0.3750 0.3750 0.1250  plane waves:     111
 k-point ** :  -0.3250 0.3750 0.1250  plane waves:     112
[...]
 k-point ** :  -0.4250 0.4250 0.3250  plane waves:     112
 k-point ** :  -0.3750 0.4250 0.3250  plane waves:     110
 k-point ** :  -0.4750 0.4750 0.3250  plane waves:     114
 k-point ** :  -0.4250 0.4750 0.3250  plane waves:     113
 k-point ** :  -0.4750-0.4750 0.3250  plane waves:     114
 k-point ** :  -0.4250-0.4750 0.3250  plane waves:     114
 k-point ** :  -0.3750 0.3750 0.3750  plane waves:     112
 k-point ** :  -0.4250 0.4250 0.3750  plane waves:     115
 k-point ** :  -0.4750 0.4750 0.3750  plane waves:     115
 k-point ** :  -0.4250 0.4750 0.3750  plane waves:     116
 k-point ** :  -0.4750-0.4750 0.3750  plane waves:     116
 k-point ** :  -0.4250 0.4250 0.4250  plane waves:     116
 k-point ** :  -0.4750 0.4750 0.4250  plane waves:     116
 k-point ** :  -0.4750-0.4750 0.4250  plane waves:     116
 k-point ** :  -0.4750 0.4750 0.4750  plane waves:     116

 maximum and minimum number of plane-waves per node :       127      104

 maximum number of plane-waves:       127
 maximum index in each direction:
   IXMAX=    3   IYMAX=    3   IZMAX=    3
   IXMIN=   -3   IYMIN=   -3   IZMIN=   -3

 serial   3D FFT for wavefunctions
 parallel 3D FFT for charge:
    minimum data exchange during FFTs selected (reduces bandwidth)

 Broyden mixing: mesh for mixing (old mesh)
   NGX =  7   NGY =  7   NGZ =  7
  (NGX  = 20   NGY  = 20   NGZ  = 20)
  gives a total of    343 points

 initial charge density was supplied:
 charge density of overlapping atoms calculated
 number of electron       8.0000000 magnetization       3.0000000
 keeping initial charge density in first step

 Maximum index for augmentation-charges         3071 (set IRDMAX)

 First call to EWALD:  gamma=   0.789
 Maximum number of real-space cells 3x 3x 3
 Maximum number of reciprocal cells 3x 3x 3

--------------------------------------- Iteration      1(   1)  ---------------------------------------

 eigenvalue-minimisations  : 10954
 total energy-change (2. order) : 0.7767735E+01  (-0.2759188E+03)
 number of electron       8.0000000 magnetization       3.0000000
 augmentation part        8.0000000 magnetization       3.0000000

 Free energy of the ion-electron system (eV)
  alpha Z        PSCENC =        59.09385667
  Ewald energy   TEWEN  =      -592.55617941
  -Hartree energ DENC   =      -110.86883875
  -exchange      EXHF   =         0.00000000
  -V(xc)+E(xc)   XCENC  =         5.59719903
  PAW double counting   =       478.07446770     -487.43411278
  entropy T*S    EENTRO =        -0.00023368
  eigenvalues    EBANDS =        58.53122402
  atomic energy  EATOM  =       597.33035224
  Solvation  Ediel_sol  =         0.00000000
  free energy    TOTEN  =         7.76773503 eV

  energy without entropy =        7.76796871  energy(sigma->0) =        7.76781293

[...]

 eigenvalue-minimisations  : 10182
 total energy-change (2. order) :-0.1781235E+02  (-0.1653269E+02)
 number of electron       8.0000000 magnetization       3.0000000
 augmentation part        8.0000000 magnetization       3.0000000

[...]

 Broyden mixing:
  rms(total) = 0.87259E+00    rms(broyden)= 0.87188E+00
  rms(prec ) = 0.33725E+01
  weight for this iteration     100.00

[...]

 eigenvalues of (default mixing * dielectric matrix)
  average eigenvalue GAMMA=   0.7208
  0.7208

[...]

 eigenvalue-minimisations  :  6340
 total energy-change (2. order) :-0.1094426E-05  (-0.6449597E-07)
 number of electron       8.0000128 magnetization       2.1326749
 augmentation part        4.1328760 magnetization       1.7070439

[...]

 Broyden mixing:
  rms(total) = 0.28573E-03    rms(broyden)= 0.28569E-03
  rms(prec ) = 0.95201E-03
  weight for this iteration     100.00

 eigenvalues of (default mixing * dielectric matrix)
  average eigenvalue GAMMA=   1.2080
  2.4865  2.4865  1.2364  0.8549  0.6843  0.6843  0.6156  0.6156

[...]

--------------------------------------- Iteration      1(  14)  ---------------------------------------

 eigenvalue-minimisations  :  5082
 total energy-change (2. order) : 0.4867263E-07  (-0.4992540E-07)
 number of electron       8.0000128 magnetization       2.1325049
 augmentation part        4.1327958 magnetization       1.7068762

 Free energy of the ion-electron system (eV)
  alpha Z        PSCENC =        59.09385667
  Ewald energy   TEWEN  =      -592.55617941
  -Hartree energ DENC   =       -94.59826101
  -exchange      EXHF   =         0.00000000
  -V(xc)+E(xc)   XCENC  =         4.59563290
  PAW double counting   =       515.93891036     -526.48442024
  entropy T*S    EENTRO =        -0.00119463
  eigenvalues    EBANDS =        27.51190821
  atomic energy  EATOM  =       597.33035224
  Solvation  Ediel_sol  =         0.00000000
  free energy    TOTEN  =        -9.16939492 eV

  energy without entropy =       -9.16820029  energy(sigma->0) =       -9.16899671

 average (electrostatic) potential at core
  the test charge radii are     1.0103
  (the norm of the test charge is              1.0000)
       1 -43.9023

 E-fermi :   5.7281     XC(G=0): -13.4302     alpha+bet :-13.6040

 spin component 1

 k-point     1 :       0.0250    0.0250    0.0250
  band No.  band energies     occupation
      1      -2.6774      1.00000
      2       3.3867      1.00000
      3       3.3867      1.00000
      4       3.5176      1.00000
      5       4.7564      1.00000
      6       4.7564      1.00000
      7      29.8719      0.00000
      8      29.8719      0.00000
      9      30.7407      0.00000
     10      35.4746      0.00000

[...]

 spin component 2

[...]

 k-point   250 :      -0.4750    0.4750    0.4750
  band No.  band energies     occupation
      1       2.4841      1.00000
      2       2.4892      1.00000
      3       7.8110     -0.00000
      4       7.8112     -0.00000
      5       7.8513     -0.00000
      6      15.6461      0.00000
      7      16.0881      0.00000
      8      16.0881      0.00000
      9      22.5738      0.00000
     10      22.8081      0.00000

 soft charge-density along one line, spin component           1
         0         1         2         3         4         5         6         7         8         9
 total charge-density along one line

 soft charge-density along one line, spin component           2
         0         1         2         3         4         5         6         7         8         9
 total charge-density along one line

------------------------ aborting loop because EDIFF is reached ----------------------------------------

  FORCE on cell =-STRESS in cart. coord.  units (eV):
  Direction    XX          YY          ZZ          XY          YZ          ZX
  Alpha Z    59.09386    59.09386    59.09386
  Ewald    -197.51872  -197.51872  -197.51872    -0.00000     0.00000    -0.00000
  Hartree    31.53294    31.53294    31.53294    -0.00000    -0.00000    -0.00000
  E(xc)     -39.41120   -39.41120   -39.41120     0.00001     0.00001     0.00001
  Local      58.96112    58.96112    58.96112     0.00007     0.00007     0.00007
  n-local   -27.31748   -26.09405   -25.20884     1.05314    -0.73974    -1.55945
  augment    38.33786    38.33786    38.33786     0.00002     0.00002     0.00002
  Kinetic    74.06468    73.51365    73.44476    -1.88296     1.98089     1.24894
  Fock        0.00000     0.00000     0.00000     0.00000     0.00000     0.00000
  Total      -1.53658    -1.53658    -1.53658     0.00000     0.00000     0.00000
  in kB    -217.23797  -217.23797  -217.23797     0.00000     0.00000     0.00000

 VOLUME and BASIS-vectors are now :
  energy-cutoff  :      267.97
  volume of cell :       11.33
      direct lattice vectors                 reciprocal lattice vectors
    -1.415000000  1.415000000  1.415000000     0.000000000  0.353356890  0.353356890
     1.415000000 -1.415000000  1.415000000     0.353356890  0.000000000  0.353356890
     1.415000000  1.415000000 -1.415000000     0.353356890  0.353356890  0.000000000

  length of vectors
     2.450851893  2.450851893  2.450851893     0.499722107  0.499722107  0.499722107

 FORCES acting on ions
    electron-ion (+dipol)            ewald-force                    non-local-force                 convergence-correction
   0.722E-14 0.104E-13 0.953E-14   -.563E-15 0.290E-14 -.735E-15   -.290E-23 0.290E-23 -.290E-23   0.137E-13 0.113E-13 0.148E-13
   0.722E-14 0.104E-13 0.953E-14   -.563E-15 0.290E-14 -.735E-15   -.290E-23 0.290E-23 -.290E-23   0.137E-13 0.113E-13 0.148E-13

 POSITION                                       TOTAL-FORCE (eV/Angst)
      0.00000      0.00000      0.00000         0.000000     -0.000000     -0.000000
    total drift:                                0.000000      0.000000      0.000000

  FREE ENERGIE OF THE ION-ELECTRON SYSTEM (eV)
  free  energy   TOTEN  =        -9.16939492 eV

  energy  without entropy=       -9.16820029  energy(sigma->0) =       -9.16899671