 vasp.5.4.4.18Apr17-6-g9f103f2a35 (build May 20 2018 16:52:39) complex

 executed on             LinuxIFC date 2022.11.04  18:17:54

 INCAR:
 POTCAR:   PAW_PBE Si 05Jan2001
 POTCAR:   PAW_PBE Si 05Jan2001
   VRHFIN =Si: s2p2

   TITEL  = PAW_PBE Si 05Jan2001
   POMASS =   28.085; ZVAL   =    4.000    mass and valenz
   ENMAX  =  245.345; ENMIN  =  184.009 eV
   QCUT   =   -4.246; QGAM   =    8.493    optimization parameters

   Description
     l     E      TYP  RCUT    TYP  RCUT
     0   .000     23  1.900
     0   .000     23  1.900
     1   .000     23  1.900
     1   .000     23  1.900
     2   .000      7  1.900

 PAW_PBE Si 05Jan2001                   :

 POSCAR: sic Si
  positions in direct lattice
 exchange correlation table for  LEXCH =        8
   RHO(1)=    0.500       N(1)  =     2000
   RHO(2)=  100.500       N(2)  =     4000

 ion  position               nearest neighbor table
   1  0.000  0.000  0.000-   5 2.35   6 2.35   7 2.35   8 2.35
   2  0.500  0.500  0.000-   5 2.35   6 2.35   7 2.35   8 2.35
   3  0.000  0.500  0.500-   5 2.35   6 2.35   7 2.35   8 2.35
   4  0.500  0.000  0.500-   5 2.35   6 2.35   7 2.35   8 2.35
   5  0.250  0.250  0.250-   1 2.35   2 2.35   3 2.35   4 2.35
   6  0.750  0.750  0.250-   1 2.35   2 2.35   3 2.35   4 2.35
   7  0.250  0.750  0.750-   1 2.35   2 2.35   3 2.35   4 2.35
   8  0.750  0.250  0.750-   1 2.35   2 2.35   3 2.35   4 2.35

  LATTYP: Found a simple cubic cell.
 ALAT       =     5.4300000000

  Lattice vectors:

 A1 = (   5.4300000000,   0.0000000000,   0.0000000000)
 A2 = (   0.0000000000,   5.4300000000,   0.0000000000)
 A3 = (   0.0000000000,   0.0000000000,   5.4300000000)

Analysis of symmetry for initial positions (statically):
 Subroutine PRICEL returns following result:

  LATTYP: Found a face centered cubic cell.
 ALAT       =     5.4300000000

[...]

   4 primitive cells build up your supercell.

 Routine SETGRP: Setting up the symmetry group for a
 simple cubic supercell.

 Subroutine GETGRP returns: Found 48 space group operations
 (whereof 24 operations were pure point group operations)
 out of a pool of 48 trial point group operations.

The static configuration has the point symmetry T_d .
 The point group associated with its full space group is O_h .

Analysis of symmetry for dynamics (positions and initial velocities):
 Subroutine PRICEL returns following result:

  LATTYP: Found a face centered cubic cell.
 ALAT       =     5.4300000000

  Lattice vectors:

 A1 = (   2.7150000000,   2.7150000000,   0.0000000000)
 A2 = (   2.7150000000,   0.0000000000,  -2.7150000000)
 A3 = (   0.0000000000,   2.7150000000,  -2.7150000000)

   4 primitive cells build up your supercell.

 Routine SETGRP: Setting up the symmetry group for a
 simple cubic supercell.

 Subroutine GETGRP returns: Found 48 space group operations
 (whereof 24 operations were pure point group operations)
 out of a pool of 48 trial point group operations.

The dynamic configuration has the point symmetry T_d .
 The point group associated with its full space group is O_h .

 Subroutine INISYM returns: Found 48 space group operations
 (whereof 24 operations are pure point group operations),
 and found     4 'primitive' translations

 KPOINTS: 10*10*10

Automatic generation of k-mesh.
Space group operators:
 irot       det(A)        alpha          n_x          n_y          n_z        tau_x        tau_y        tau_z
    1     1.000000     0.000001     1.000000     0.000000     0.000000     0.000000     0.000000     0.000000
    2     1.000000   120.000000    -0.577350    -0.577350    -0.577350     0.000000     0.000000     0.000000
    3     1.000000   120.000000     0.577350     0.577350     0.577350     0.000000     0.000000     0.000000
    4    -1.000000    90.000000     0.000000     0.000000    -1.000000     0.000000     0.000000     0.000000
    5    -1.000000   180.000000     0.000000     0.707107     0.707107     0.000000     0.000000     0.000000
    6    -1.000000    90.000000     0.000000     1.000000     0.000000     0.000000     0.000000     0.000000
    7     1.000000   180.000000     0.000000     0.000000     1.000000     0.000000     0.000000     0.000000
    8     1.000000   120.000000    -0.577350     0.577350     0.577350     0.000000     0.000000     0.000000
    9     1.000000   120.000000    -0.577350     0.577350    -0.577350     0.000000     0.000000     0.000000
   10    -1.000000    90.000000     0.000000     0.000000     1.000000     0.000000     0.000000     0.000000
   11    -1.000000    90.000000    -1.000000     0.000000     0.000000     0.000000     0.000000     0.000000
   12    -1.000000   180.000000     0.707107     0.000000     0.707107     0.000000     0.000000     0.000000
   13     1.000000   120.000000     0.577350    -0.577350     0.577350     0.000000     0.000000     0.000000
   14     1.000000   120.000000    -0.577350    -0.577350     0.577350     0.000000     0.000000     0.000000
   15     1.000000   180.000000     1.000000     0.000000     0.000000     0.000000     0.000000     0.000000
   16    -1.000000    90.000000     0.000000    -1.000000     0.000000     0.000000     0.000000     0.000000
   17    -1.000000   180.000000     0.707107     0.707107     0.000000     0.000000     0.000000     0.000000
   18    -1.000000    90.000000     1.000000     0.000000     0.000000     0.000000     0.000000     0.000000
   19     1.000000   120.000000     0.577350    -0.577350    -0.577350     0.000000     0.000000     0.000000
   20     1.000000   180.000000     0.000000     1.000000     0.000000     0.000000     0.000000     0.000000
   21     1.000000   120.000000     0.577350     0.577350    -0.577350     0.000000     0.000000     0.000000
   22    -1.000000   180.000000     0.000000    -0.707107     0.707107     0.000000     0.000000     0.000000
   23    -1.000000   180.000000     0.707107    -0.707107     0.000000     0.000000     0.000000     0.000000
   24    -1.000000   180.000000     0.707107     0.000000    -0.707107     0.000000     0.000000     0.000000
   25    -1.000000     0.000001     1.000000     0.000000     0.000000     0.750000     0.750000    -0.750000
   26    -1.000000   120.000000    -0.577350    -0.577350    -0.577350     0.750000     0.750000    -0.750000
   27    -1.000000   120.000000     0.577350     0.577350     0.577350     0.750000     0.750000    -0.750000
   28     1.000000    90.000000     0.000000     0.000000    -1.000000     0.750000     0.750000    -0.750000
   29     1.000000   180.000000     0.000000     0.707107     0.707107     0.750000     0.750000    -0.750000
   30     1.000000    90.000000     0.000000     1.000000     0.000000     0.750000     0.750000    -0.750000
   31    -1.000000   180.000000     0.000000     0.000000     1.000000     0.750000     0.750000    -0.750000
   32    -1.000000   120.000000    -0.577350     0.577350     0.577350     0.750000     0.750000    -0.750000
   33    -1.000000   120.000000    -0.577350     0.577350    -0.577350     0.750000     0.750000    -0.750000
   34     1.000000    90.000000     0.000000     0.000000     1.000000     0.750000     0.750000    -0.750000
   35     1.000000    90.000000    -1.000000     0.000000     0.000000     0.750000     0.750000    -0.750000
   36     1.000000   180.000000     0.707107     0.000000     0.707107     0.750000     0.750000    -0.750000
   37    -1.000000   120.000000     0.577350    -0.577350     0.577350     0.750000     0.750000    -0.750000
   38    -1.000000   120.000000    -0.577350    -0.577350     0.577350     0.750000     0.750000    -0.750000
   39    -1.000000   180.000000     1.000000     0.000000     0.000000     0.750000     0.750000    -0.750000
   40     1.000000    90.000000     0.000000    -1.000000     0.000000     0.750000     0.750000    -0.750000
   41     1.000000   180.000000     0.707107     0.707107     0.000000     0.750000     0.750000    -0.750000
   42     1.000000    90.000000     1.000000     0.000000     0.000000     0.750000     0.750000    -0.750000
   43    -1.000000   120.000000     0.577350    -0.577350    -0.577350     0.750000     0.750000    -0.750000
   44    -1.000000   180.000000     0.000000     1.000000     0.000000     0.750000     0.750000    -0.750000
   45    -1.000000   120.000000     0.577350     0.577350    -0.577350     0.750000     0.750000    -0.750000
   46     1.000000   180.000000     0.000000    -0.707107     0.707107     0.750000     0.750000    -0.750000
   47     1.000000   180.000000     0.707107    -0.707107     0.000000     0.750000     0.750000    -0.750000
   48     1.000000   180.000000     0.707107     0.000000    -0.707107     0.750000     0.750000    -0.750000

 Subroutine IBZKPT returns following result:

 Found     56 irreducible k-points:

 Following reciprocal coordinates:
            Coordinates               Weight
  0.000000  0.000000  0.000000      1.000000
  0.100000  0.000000  0.000000      6.000000
  0.200000  0.000000  0.000000      6.000000
  0.300000  0.000000  0.000000      6.000000
  0.400000  0.000000  0.000000      6.000000
  0.500000  0.000000  0.000000      3.000000
  0.100000  0.100000  0.000000     12.000000
  0.200000  0.100000  0.000000     24.000000
  0.300000  0.100000  0.000000     24.000000
  0.400000  0.100000  0.000000     24.000000
  0.500000  0.100000  0.000000     12.000000
  0.200000  0.200000  0.000000     12.000000
  0.300000  0.200000  0.000000     24.000000
  0.400000  0.200000  0.000000     24.000000
  0.500000  0.200000  0.000000     12.000000
  0.300000  0.300000  0.000000     12.000000
  0.400000  0.300000  0.000000     24.000000
  0.500000  0.300000  0.000000     12.000000
  0.400000  0.400000  0.000000     12.000000
  0.500000  0.400000  0.000000     12.000000
  0.500000  0.500000  0.000000      3.000000
  0.100000  0.100000  0.100000      8.000000
  0.200000  0.100000  0.100000     24.000000
  0.300000  0.100000  0.100000     24.000000
  0.400000  0.100000  0.100000     24.000000
  0.500000  0.100000  0.100000     12.000000
  0.200000  0.200000  0.100000     24.000000
  0.300000  0.200000  0.100000     48.000000
  0.400000  0.200000  0.100000     48.000000
  0.500000  0.200000  0.100000     24.000000
  0.300000  0.300000  0.100000     24.000000
  0.400000  0.300000  0.100000     48.000000
  0.500000  0.300000  0.100000     24.000000
  0.400000  0.400000  0.100000     24.000000
  0.500000  0.400000  0.100000     24.000000
  0.500000  0.500000  0.100000      6.000000
  0.200000  0.200000  0.200000      8.000000
  0.300000  0.200000  0.200000     24.000000
  0.400000  0.200000  0.200000     24.000000
  0.500000  0.200000  0.200000     12.000000
  0.300000  0.300000  0.200000     24.000000
  0.400000  0.300000  0.200000     48.000000
  0.500000  0.300000  0.200000     24.000000
  0.400000  0.400000  0.200000     24.000000
  0.500000  0.400000  0.200000     24.000000
  0.500000  0.500000  0.200000      6.000000
  0.300000  0.300000  0.300000      8.000000
  0.400000  0.300000  0.300000     24.000000
  0.500000  0.300000  0.300000     12.000000
  0.400000  0.400000  0.300000     24.000000
  0.500000  0.400000  0.300000     24.000000
  0.500000  0.500000  0.300000      6.000000
[...]
   0.20000000  0.10000000  0.00000000       0.024
   0.30000000  0.10000000  0.00000000       0.024
   0.40000000  0.10000000  0.00000000       0.024
   0.50000000  0.10000000  0.00000000       0.012
   0.20000000  0.20000000  0.00000000       0.012
   0.30000000  0.20000000  0.00000000       0.024
   0.40000000  0.20000000  0.00000000       0.024
   0.50000000  0.20000000  0.00000000       0.012
   0.30000000  0.30000000  0.00000000       0.012
   0.40000000  0.30000000  0.00000000       0.024
   0.50000000  0.30000000  0.00000000       0.012
   0.40000000  0.40000000  0.00000000       0.012
   0.50000000  0.40000000  0.00000000       0.012
   0.50000000  0.50000000  0.00000000       0.003
   0.10000000  0.10000000  0.10000000       0.008
   0.20000000  0.10000000  0.10000000       0.024
   0.30000000  0.10000000  0.10000000       0.024
   0.40000000  0.10000000  0.10000000       0.024
   0.50000000  0.10000000  0.10000000       0.012
   0.20000000  0.20000000  0.10000000       0.024
   0.30000000  0.20000000  0.10000000       0.048
   0.40000000  0.20000000  0.10000000       0.048
   0.50000000  0.20000000  0.10000000       0.024
   0.30000000  0.30000000  0.10000000       0.024
   0.40000000  0.30000000  0.10000000       0.048
   0.50000000  0.30000000  0.10000000       0.024
   0.40000000  0.40000000  0.10000000       0.024
   0.50000000  0.40000000  0.10000000       0.024
   0.50000000  0.50000000  0.10000000       0.006
   0.20000000  0.20000000  0.20000000       0.008
   0.30000000  0.20000000  0.20000000       0.024
   0.40000000  0.20000000  0.20000000       0.024
   0.50000000  0.20000000  0.20000000       0.012
   0.30000000  0.30000000  0.20000000       0.024
   0.40000000  0.30000000  0.20000000       0.048
   0.50000000  0.30000000  0.20000000       0.024
   0.40000000  0.40000000  0.20000000       0.024
   0.50000000  0.40000000  0.20000000       0.024
   0.50000000  0.50000000  0.20000000       0.006
   0.30000000  0.30000000  0.30000000       0.008
   0.40000000  0.30000000  0.30000000       0.024
   0.50000000  0.30000000  0.30000000       0.012
   0.40000000  0.40000000  0.30000000       0.024
   0.50000000  0.40000000  0.30000000       0.024
   0.50000000  0.50000000  0.30000000       0.006
   0.40000000  0.40000000  0.40000000       0.008
   0.50000000  0.40000000  0.40000000       0.012
   0.50000000  0.50000000  0.40000000       0.006
   0.50000000  0.50000000  0.50000000       0.001

 position of ions in fractional coordinates (direct lattice)
   0.00000000  0.00000000  0.00000000
   0.50000000  0.50000000  0.00000000
   0.00000000  0.50000000  0.50000000
   0.50000000  0.00000000  0.50000000
   0.25000000  0.25000000  0.25000000
   0.75000000  0.75000000  0.25000000
   0.25000000  0.75000000  0.75000000
   0.75000000  0.25000000  0.75000000

 position of ions in cartesian coordinates  (Angst):
   0.00000000  0.00000000  0.00000000
   2.71500000  2.71500000  0.00000000
   0.00000000  2.71500000  2.71500000
   2.71500000  0.00000000  2.71500000
   1.35750000  1.35750000  1.35750000
   4.07250000  4.07250000  1.35750000
   1.35750000  4.07250000  4.07250000
   4.07250000  1.35750000  4.07250000

 k-point  1 :   0.0000 0.0000 0.0000  plane waves:    1863
 k-point  2 :   0.1000 0.0000 0.0000  plane waves:    1887
 k-point  3 :   0.2000 0.0000 0.0000  plane waves:    1895
 k-point  4 :   0.3000 0.0000 0.0000  plane waves:    1907
 k-point  5 :   0.4000 0.0000 0.0000  plane waves:    1908
 k-point  6 :   0.5000 0.0000 0.0000  plane waves:    1888
 k-point  7 :   0.1000 0.1000 0.0000  plane waves:    1881
 k-point  8 :   0.2000 0.1000 0.0000  plane waves:    1882
 k-point  9 :   0.3000 0.1000 0.0000  plane waves:    1901
 k-point 10 :   0.4000 0.1000 0.0000  plane waves:    1893
 k-point 11 :   0.5000 0.1000 0.0000  plane waves:    1882
 k-point 12 :   0.2000 0.2000 0.0000  plane waves:    1893
 k-point 13 :   0.3000 0.2000 0.0000  plane waves:    1891
 k-point 14 :   0.4000 0.2000 0.0000  plane waves:    1895
 k-point 15 :   0.5000 0.2000 0.0000  plane waves:    1888
 k-point 16 :   0.3000 0.3000 0.0000  plane waves:    1887
 k-point 17 :   0.4000 0.3000 0.0000  plane waves:    1887
 k-point 18 :   0.5000 0.3000 0.0000  plane waves:    1892
 k-point 19 :   0.4000 0.4000 0.0000  plane waves:    1881
 k-point 20 :   0.5000 0.4000 0.0000  plane waves:    1896
 k-point 21 :   0.5000 0.5000 0.0000  plane waves:    1924
 k-point 22 :   0.1000 0.1000 0.1000  plane waves:    1887
 k-point 23 :   0.2000 0.1000 0.1000  plane waves:    1882
 k-point 24 :   0.3000 0.1000 0.1000  plane waves:    1886
 k-point 25 :   0.4000 0.1000 0.1000  plane waves:    1893
 k-point 26 :   0.5000 0.1000 0.1000  plane waves:    1900
 k-point 27 :   0.2000 0.2000 0.1000  plane waves:    1896
 k-point 28 :   0.3000 0.2000 0.1000  plane waves:    1895
 k-point 29 :   0.4000 0.2000 0.1000  plane waves:    1888
 k-point 30 :   0.5000 0.2000 0.1000  plane waves:    1896
 k-point 31 :   0.3000 0.3000 0.1000  plane waves:    1889
 k-point 32 :   0.4000 0.3000 0.1000  plane waves:    1882
 k-point 33 :   0.5000 0.3000 0.1000  plane waves:    1890
 k-point 34 :   0.4000 0.4000 0.1000  plane waves:    1895
 k-point 35 :   0.5000 0.4000 0.1000  plane waves:    1886
 k-point 36 :   0.5000 0.5000 0.1000  plane waves:    1884
 k-point 37 :   0.2000 0.2000 0.2000  plane waves:    1887
 k-point 38 :   0.3000 0.2000 0.2000  plane waves:    1890
 k-point 39 :   0.4000 0.2000 0.2000  plane waves:    1891
 k-point 40 :   0.5000 0.2000 0.2000  plane waves:    1900
 k-point 41 :   0.3000 0.3000 0.2000  plane waves:    1882
 k-point 42 :   0.4000 0.3000 0.2000  plane waves:    1884
 k-point 43 :   0.5000 0.3000 0.2000  plane waves:    1888
 k-point 44 :   0.4000 0.4000 0.2000  plane waves:    1900
 k-point 45 :   0.5000 0.4000 0.2000  plane waves:    1878
 k-point 46 :   0.5000 0.5000 0.2000  plane waves:    1884
 k-point 47 :   0.3000 0.3000 0.3000  plane waves:    1893
 k-point 48 :   0.4000 0.3000 0.3000  plane waves:    1883
 k-point 49 :   0.5000 0.3000 0.3000  plane waves:    1874
 k-point 50 :   0.4000 0.4000 0.3000  plane waves:    1878
 k-point 51 :   0.5000 0.4000 0.3000  plane waves:    1882
 k-point 52 :   0.5000 0.5000 0.3000  plane waves:    1880
 k-point 53 :   0.4000 0.4000 0.4000  plane waves:    1884
 k-point 54 :   0.5000 0.4000 0.4000  plane waves:    1886
 k-point 55 :   0.5000 0.5000 0.4000  plane waves:    1880
 k-point 56 :   0.5000 0.5000 0.5000  plane waves:    1904

 maximum and minimum number of plane-waves per node :      1924     1863

 maximum number of plane-waves:      1924
 maximum index in each direction:
   IXMAX=    7   IYMAX=    7   IZMAX=    7
   IXMIN=   -8   IYMIN=   -8   IZMIN=   -8

 serial   3D FFT for wavefunctions
 parallel 3D FFT for charge:
    minimum data exchange during FFTs selected (reduces bandwidth)

 Broyden mixing: mesh for mixing (old mesh)
   NGX = 15   NGY = 15   NGZ = 15
  (NGX  = 48   NGY  = 48   NGZ  = 48)
  gives a total of   3375 points

 initial charge density was supplied:
 charge density of overlapping atoms calculated
 number of electron      32.0000000 magnetization
 keeping initial charge density in first step

 Maximum index for augmentation-charges         2801 (set IRDMAX)

 First call to EWALD:  gamma=   0.326
 Maximum number of real-space cells 3x 3x 3
 Maximum number of reciprocal cells 3x 3x 3

--------------------------------------- Iteration      1(   1)  ---------------------------------------

 BZINTS: Fermi energy: 11.313131; 32.000000 electrons
         Band energy: 104.700899;  BLOECHL correction: -0.136887

 eigenvalue-minimisations  :  2352
 total energy-change (2. order) : 0.5075717E+02  (-0.8825589E+03)
 number of electron      32.0000000 magnetization
 augmentation part       32.0000000 magnetization

 Free energy of the ion-electron system (eV)
  alpha Z        PSCENC =        13.45656811
  Ewald energy   TEWEN  =      -914.25413255
  -Hartree energ DENC   =       -44.00432972
  -exchange      EXHF   =         0.00000000
  -V(xc)+E(xc)   XCENC  =       -74.40730106
  PAW double counting   =       263.82083246     -123.07410713
  entropy T*S    EENTRO =         0.00000000
  eigenvalues    EBANDS =       104.70089905
  atomic energy  EATOM  =       824.51874349
  Solvation  Ediel_sol  =         0.00000000
  free energy    TOTEN  =        50.75717265 eV

  energy without entropy =       50.75717265  energy(sigma->0) =       50.75717265

[...]

 eigenvalue-minimisations  :  3247
 total energy-change (2. order) :-0.9082292E+02  (-0.8614033E+02)
 number of electron      32.0000000 magnetization
 augmentation part       32.0000000 magnetization

[...]

 Broyden mixing:
  rms(total) = 0.60104E+00    rms(broyden)= 0.60102E+00
  rms(prec ) = 0.11201E+01
  weight for this iteration     100.00

[...]

 eigenvalues of (default mixing * dielectric matrix)
  average eigenvalue GAMMA=   2.4449
  2.4449

[...]

 eigenvalue-minimisations  :  2641
 total energy-change (2. order) : 0.2277731E+00  (-0.5461695E-01)
 number of electron      32.0000059 magnetization
 augmentation part       -1.8306894 magnetization

[...]

 Broyden mixing:
  rms(total) = 0.11543E-03    rms(broyden)= 0.11540E-03
  rms(prec ) = 0.16392E-03
  weight for this iteration     100.00

 eigenvalues of (default mixing * dielectric matrix)
  average eigenvalue GAMMA=   2.0831
  3.3388  2.7119  2.3987  2.0966  0.9763  0.9763

[...]

--------------------------------------- Iteration      1(  12)  ---------------------------------------

 BZINTS: Fermi energy:  5.856219; 32.000000 electrons
         Band energy:  24.579548;  BLOECHL correction:  0.000000

 eigenvalue-minimisations  :  2867
 total energy-change (2. order) :-0.9044334E-07  (-0.6558107E-07)
 number of electron      32.0000059 magnetization
 augmentation part       -1.8344884 magnetization

 Free energy of the ion-electron system (eV)
  alpha Z        PSCENC =        13.45656811
  Ewald energy   TEWEN  =      -914.25413255
  -Hartree energ DENC   =       -59.65497853
  -exchange      EXHF   =         0.00000000
  -V(xc)+E(xc)   XCENC  =       -71.84009799
  PAW double counting   =       297.99182475     -158.15072513
  entropy T*S    EENTRO =         0.00000000
  eigenvalues    EBANDS =        24.57954804
  atomic energy  EATOM  =       824.51874349
  Solvation  Ediel_sol  =         0.00000000
  free energy    TOTEN  =       -43.35324980 eV

  energy without entropy =      -43.35324980  energy(sigma->0) =      -43.35324980

 average (electrostatic) potential at core
  the test charge radii are     0.9892
  (the norm of the test charge is              1.0000)
       1 -83.2455       2 -83.2455       3 -83.2455       4 -83.2455       5 -83.2455
       6 -83.2455       7 -83.2455       8 -83.2455

 E-fermi :   5.8562     XC(G=0):  -9.4110     alpha+bet :-11.9845

 k-point     1 :       0.0000    0.0000    0.0000
  band No.  band energies     occupation
      1      -6.1305      2.00000
      2      -1.9845      2.00000
      3      -1.9845      2.00000
      4      -1.9845      2.00000
      5      -1.9845      2.00000
      6      -1.9845      2.00000
      7      -1.9845      2.00000
      8       2.9801      2.00000
      9       2.9801      2.00000
     10       2.9801      2.00000
     11       2.9801      2.00000
     12       2.9801      2.00000
     13       2.9801      2.00000
     14       5.8331      2.00000
     15       5.8331      2.00000
     16       5.8331      2.00000
     17       6.5442      0.00000
     18       6.5442      0.00000
     19       6.5442      0.00000
     20       6.5442      0.00000
     21       6.5442      0.00000

[...]

 k-point    56 :       0.5000    0.5000    0.5000
  band No.  band energies     occupation
      1      -3.7980      2.00000
      2      -3.7980      2.00000
      3      -3.7980      2.00000
      4      -3.7980      2.00000
      5      -1.1375      2.00000
      6      -1.1375      2.00000
      7      -1.1375      2.00000
      8      -1.1375      2.00000
      9       4.6337      2.00000
     10       4.6337      2.00000
     11       4.6337      2.00000
     12       4.6337      2.00000
     13       4.6337      2.00000
     14       4.6337      2.00000
     15       4.6337      2.00000
     16       4.6337      2.00000
     17       7.3755      0.00000
     18       7.3755      0.00000
     19       7.3755      0.00000
     20       7.3755      0.00000
     21       9.1773      0.00000

 soft charge-density along one line, spin component           1
         0         1         2         3         4         5         6         7         8         9
 total charge-density along one line

------------------------ aborting loop because EDIFF is reached ----------------------------------------

  FORCE on cell =-STRESS in cart. coord.  units (eV):
  Direction    XX          YY          ZZ          XY          YZ          ZX
  Alpha Z    13.45657    13.45657    13.45657
  Ewald    -304.75190  -304.75190  -304.75190     0.00000    -0.00000    -0.00000
  Hartree    19.88425    19.88425    19.88425    -0.00000    -0.00000    -0.00000
  E(xc)    -101.50781  -101.50781  -101.50781    -0.00000    -0.00000     0.00000
  Local    -117.04493  -117.04493  -117.04493    -0.00000    -0.00000    -0.00000
  n-local   311.53830   314.92997   308.23858    -2.77552    -2.30669    -1.37417
  augment   -46.58989   -46.58989   -46.58989     0.00000     0.00000     0.00000
  Kinetic   219.47600   231.37072   229.69855    -3.46392    -5.23944    -2.31513
  Fock        0.00000     0.00000     0.00000     0.00000     0.00000     0.00000
  Total       1.86367     1.86367     1.86367     0.00000     0.00000    -0.00000
  in kB      18.65009    18.65009    18.65009     0.00000     0.00000    -0.00000

 VOLUME and BASIS-vectors are now :
  energy-cutoff  :      300.00
  volume of cell :      160.10
      direct lattice vectors                 reciprocal lattice vectors
     5.430000000  0.000000000  0.000000000     0.184162063  0.000000000  0.000000000
     0.000000000  5.430000000  0.000000000     0.000000000  0.184162063  0.000000000
     0.000000000  0.000000000  5.430000000     0.000000000  0.000000000  0.184162063

  length of vectors
     5.430000000  5.430000000  5.430000000     0.184162063  0.184162063  0.184162063

 FORCES acting on ions
    electron-ion (+dipol)            ewald-force                    non-local-force                 convergence-correction
   -.170E-14 -.850E-15 -.465E-15   -.355E-14 -.711E-14 -.355E-14   0.781E-17 0.234E-16 -.494E-16   -.305E-14 -.134E-15 -.889E-15
   -.109E-13 -.152E-12 -.412E-15   -.355E-14 -.711E-14 -.355E-14   0.260E-17 0.234E-16 -.113E-16   0.450E-14 0.304E-15 -.467E-15
   0.675E-15 -.137E-13 -.139E-13   -.355E-14 -.711E-14 0.355E-14   -.356E-16 0.130E-17 -.390E-16   -.295E-14 0.316E-15 -.385E-16
   -.127E-13 0.267E-14 -.153E-12   -.355E-14 -.711E-14 0.355E-14   -.252E-16 0.130E-17 -.321E-16   0.469E-14 0.375E-15 0.304E-15
   -.494E-14 -.172E-14 -.434E-15   0.270E-14 0.728E-14 0.327E-14   -.867E-18 -.369E-16 0.191E-16   -.170E-14 -.160E-15 0.129E-14
   -.208E-13 -.112E-12 0.938E-13   0.381E-14 0.812E-14 0.327E-14   -.260E-17 -.490E-16 0.330E-16   0.199E-14 -.137E-15 0.108E-14
   -.116E-13 -.325E-13 -.325E-13   0.330E-14 0.677E-14 -.334E-14   0.954E-17 0.607E-17 0.278E-16   -.205E-14 0.127E-15 0.178E-14
   -.241E-13 0.926E-13 -.111E-12   0.441E-14 0.629E-14 -.334E-14   0.286E-16 0.234E-16 0.260E-16   0.178E-14 -.726E-15 0.150E-14
   -.860E-13 -.218E-12 -.217E-12   0.120E-16 0.458E-16 -.140E-15   -.156E-16 -.694E-17 -.260E-16   0.321E-14 -.350E-16 0.455E-14

 POSITION                                       TOTAL-FORCE (eV/Angst)
      0.00000      0.00000      0.00000        -0.000000      0.000000      0.000000
      2.71500      2.71500      0.00000        -0.000000      0.000000     -0.000000
      0.00000      2.71500      2.71500         0.000000     -0.000000     -0.000000
      2.71500      0.00000      2.71500        -0.000000      0.000000     -0.000000
      1.35750      1.35750      1.35750        -0.000000     -0.000000      0.000000
      4.07250      4.07250      1.35750         0.000000     -0.000000     -0.000000
      1.35750      4.07250      4.07250         0.000000      0.000000      0.000000
      4.07250      1.35750      4.07250         0.000000     -0.000000      0.000000
    total drift:                               -0.000000     -0.000000     -0.000000

  FREE ENERGIE OF THE ION-ELECTRON SYSTEM (eV)
  free  energy   TOTEN  =       -43.35324980 eV

  energy  without entropy=      -43.35324980  energy(sigma->0) =      -43.35324980

 writing wavefunctions
 BZINTS: Fermi energy:  5.856219; 32.000000 electrons
         Band energy:  24.579548;  BLOECHL correction:  0.000000