 vasp.5.4.4.18Apr17-6-g9f103f2a35 (build May 20 2018 16:52:39) complex

 executed on             LinuxIFC date 2022.11.17  22:01:41

 INCAR:
 POTCAR:    PAW Nb_pv 09Jan2002

 POTCAR:    PAW Nb_pv 09Jan2002
   VRHFIN =Nb: s1d4

   TITEL  = PAW Nb_pv 09Jan2002
   POMASS =   92.910; ZVAL   =   11.000    mass and valenz
   ENMAX  =  207.263; ENMIN  =  155.447 eV

  PAW Nb_pv 09Jan2002                   :

 POSCAR: primitive Nb
  positions in direct lattice
 exchange correlation table for  LEXCH =        2
   RHO(1)=    0.500       N(1)  =     2000
   RHO(2)=  100.500       N(2)  =     4000

 ion  position               nearest neighbor table
   1  0.000  0.000  0.000-

  LATTYP: Found a body centered cubic cell.
 ALAT       =     3.3008000000

  Lattice vectors:

 A1 = (  -1.6504000000,   1.6504000000,   1.6504000000)
 A2 = (   1.6504000000,  -1.6504000000,   1.6504000000)
 A3 = (   1.6504000000,   1.6504000000,  -1.6504000000)

Analysis of symmetry for initial positions (statically):
 Subroutine PRICEL returns:
 Original cell was already a primitive cell.

 Routine SETGRP: Setting up the symmetry group for a
 body centered cubic supercell.

 Subroutine GETGRP returns: Found 48 space group operations
 (whereof 48 operations were pure point group operations)
 out of a pool of 48 trial point group operations.

The static configuration has the point symmetry O_h .

Analysis of symmetry for dynamics (positions and initial velocities):
 Subroutine PRICEL returns:
 Original cell was already a primitive cell.

 Routine SETGRP: Setting up the symmetry group for a
 body centered cubic supercell.

 Subroutine GETGRP returns: Found 48 space group operations
 (whereof 48 operations were pure point group operations)
 out of a pool of 48 trial point group operations.

The dynamic configuration has the point symmetry O_h .

 Subroutine INISYM returns: Found 48 space group operations
 (whereof 48 operations are pure point group operations),
 and found     1 'primitive' translations

 KPOINTS: 20*20*20

Automatic generation of k-mesh.
Space group operators:
 irot       det(A)        alpha          n_x          n_y          n_z        tau_x        tau_y        tau_z
    1     1.000000     0.000000     1.000000     0.000000     0.000000     0.000000     0.000000     0.000000
    2    -1.000000     0.000000     1.000000     0.000000     0.000000     0.000000     0.000000     0.000000
    3     1.000000   120.000000    -0.577350    -0.577350    -0.577350     0.000000     0.000000     0.000000
    4    -1.000000   120.000000    -0.577350    -0.577350    -0.577350     0.000000     0.000000     0.000000
    5     1.000000   120.000000     0.577350     0.577350     0.577350     0.000000     0.000000     0.000000
    6    -1.000000   120.000000     0.577350     0.577350     0.577350     0.000000     0.000000     0.000000
    7     1.000000    90.000000     0.000000     0.000000    -1.000000     0.000000     0.000000     0.000000
    8    -1.000000    90.000000     0.000000     0.000000    -1.000000     0.000000     0.000000     0.000000
    9     1.000000   180.000000     0.000000     0.707107     0.707107     0.000000     0.000000     0.000000
   10    -1.000000   180.000000     0.000000     0.707107     0.707107     0.000000     0.000000     0.000000
   11     1.000000    90.000000     0.000000     1.000000     0.000000     0.000000     0.000000     0.000000
   12    -1.000000    90.000000     0.000000     1.000000     0.000000     0.000000     0.000000     0.000000
   13     1.000000   180.000000     0.000000     0.000000     1.000000     0.000000     0.000000     0.000000
   14    -1.000000   180.000000     0.000000     0.000000     1.000000     0.000000     0.000000     0.000000
   15     1.000000   120.000000    -0.577350     0.577350     0.577350     0.000000     0.000000     0.000000
   16    -1.000000   120.000000    -0.577350     0.577350     0.577350     0.000000     0.000000     0.000000
   17     1.000000   120.000000    -0.577350     0.577350    -0.577350     0.000000     0.000000     0.000000
   18    -1.000000   120.000000    -0.577350     0.577350    -0.577350     0.000000     0.000000     0.000000
   19     1.000000    90.000000     0.000000     0.000000     1.000000     0.000000     0.000000     0.000000
   20    -1.000000    90.000000     0.000000     0.000000     1.000000     0.000000     0.000000     0.000000
   21     1.000000    90.000000    -1.000000     0.000000     0.000000     0.000000     0.000000     0.000000
   22    -1.000000    90.000000    -1.000000     0.000000     0.000000     0.000000     0.000000     0.000000
   23     1.000000   180.000000     0.707107     0.000000     0.707107     0.000000     0.000000     0.000000
   24    -1.000000   180.000000     0.707107     0.000000     0.707107     0.000000     0.000000     0.000000
   25     1.000000   120.000000     0.577350    -0.577350     0.577350     0.000000     0.000000     0.000000
   26    -1.000000   120.000000     0.577350    -0.577350     0.577350     0.000000     0.000000     0.000000
   27     1.000000   120.000000    -0.577350    -0.577350     0.577350     0.000000     0.000000     0.000000
   28    -1.000000   120.000000    -0.577350    -0.577350     0.577350     0.000000     0.000000     0.000000
   29     1.000000   180.000000     1.000000     0.000000     0.000000     0.000000     0.000000     0.000000
   30    -1.000000   180.000000     1.000000     0.000000     0.000000     0.000000     0.000000     0.000000
   31     1.000000    90.000000     0.000000    -1.000000     0.000000     0.000000     0.000000     0.000000
   32    -1.000000    90.000000     0.000000    -1.000000     0.000000     0.000000     0.000000     0.000000
   33     1.000000   180.000000     0.707107     0.707107     0.000000     0.000000     0.000000     0.000000
   34    -1.000000   180.000000     0.707107     0.707107     0.000000     0.000000     0.000000     0.000000
   35     1.000000    90.000000     1.000000     0.000000     0.000000     0.000000     0.000000     0.000000
   36    -1.000000    90.000000     1.000000     0.000000     0.000000     0.000000     0.000000     0.000000
   37     1.000000   120.000000     0.577350    -0.577350    -0.577350     0.000000     0.000000     0.000000
   38    -1.000000   120.000000     0.577350    -0.577350    -0.577350     0.000000     0.000000     0.000000
   39     1.000000   180.000000     0.000000     1.000000     0.000000     0.000000     0.000000     0.000000
   40    -1.000000   180.000000     0.000000     1.000000     0.000000     0.000000     0.000000     0.000000
   41     1.000000   120.000000     0.577350     0.577350    -0.577350     0.000000     0.000000     0.000000
   42    -1.000000   120.000000     0.577350     0.577350    -0.577350     0.000000     0.000000     0.000000
   43     1.000000   180.000000     0.000000    -0.707107     0.707107     0.000000     0.000000     0.000000
   44    -1.000000   180.000000     0.000000    -0.707107     0.707107     0.000000     0.000000     0.000000
   45     1.000000   180.000000     0.707107    -0.707107     0.000000     0.000000     0.000000     0.000000
   46    -1.000000   180.000000     0.707107    -0.707107     0.000000     0.000000     0.000000     0.000000
   47     1.000000   180.000000     0.707107     0.000000    -0.707107     0.000000     0.000000     0.000000
   48    -1.000000   180.000000     0.707107     0.000000    -0.707107     0.000000     0.000000     0.000000

 Subroutine IBZKPT returns following result:

 Found    250 irreducible k-points:

 Following reciprocal coordinates:
            Coordinates               Weight
  0.025000  0.025000  0.025000      8.000000
  0.075000  0.025000  0.025000     24.000000
  0.125000  0.025000  0.025000     24.000000
  0.175000  0.025000  0.025000     24.000000
  0.225000  0.025000  0.025000     24.000000
  0.275000  0.025000  0.025000     24.000000
  0.325000  0.025000  0.025000     24.000000
  0.375000  0.025000  0.025000     24.000000
  0.425000  0.025000  0.025000     24.000000
  0.475000  0.025000  0.025000     12.000000
 -0.025000  0.025000  0.025000      6.000000
  0.075000  0.075000  0.025000     24.000000
  0.125000  0.075000  0.025000     48.000000
  0.175000  0.075000  0.025000     48.000000
  0.225000  0.075000  0.025000     48.000000
  0.275000  0.075000  0.025000     48.000000
  0.325000  0.075000  0.025000     48.000000
  0.375000  0.075000  0.025000     48.000000
  0.425000  0.075000  0.025000     48.000000
 -0.075000  0.075000  0.025000     24.000000
  0.125000  0.125000  0.025000     24.000000
  0.175000  0.125000  0.025000     48.000000
  0.225000  0.125000  0.025000     48.000000
  0.275000  0.125000  0.025000     48.000000
  0.325000  0.125000  0.025000     48.000000
  0.375000  0.125000  0.025000     48.000000
  0.425000  0.125000  0.025000     24.000000
 -0.125000  0.125000  0.025000     24.000000
 -0.075000  0.125000  0.025000     24.000000
  0.175000  0.175000  0.025000     24.000000
  0.225000  0.175000  0.025000     48.000000
  0.275000  0.175000  0.025000     48.000000
  0.325000  0.175000  0.025000     48.000000
  0.375000  0.175000  0.025000     48.000000
 -0.175000  0.175000  0.025000     24.000000
 -0.125000  0.175000  0.025000     48.000000
  0.225000  0.225000  0.025000     24.000000
  0.275000  0.225000  0.025000     48.000000
  0.325000  0.225000  0.025000     48.000000
  0.375000  0.225000  0.025000     24.000000
 -0.225000  0.225000  0.025000     24.000000
 -0.175000  0.225000  0.025000     48.000000
 -0.125000  0.225000  0.025000     24.000000
  0.275000  0.275000  0.025000     24.000000
  0.325000  0.275000  0.025000     48.000000
 -0.275000  0.275000  0.025000     24.000000
 -0.225000  0.275000  0.025000     48.000000
 -0.175000  0.275000  0.025000     48.000000
  0.325000  0.325000  0.025000      8.000000
 -0.325000  0.325000  0.025000     24.000000
 -0.275000  0.325000  0.025000     48.000000
 -0.225000  0.325000  0.025000     48.000000
 -0.175000  0.325000  0.025000     24.000000
 -0.375000  0.375000  0.025000     24.000000
 -0.325000  0.375000  0.025000     48.000000
 -0.275000  0.375000  0.025000     48.000000
 -0.225000  0.375000  0.025000     48.000000
 -0.425000  0.425000  0.025000     24.000000
 -0.375000  0.425000  0.025000     48.000000
 -0.325000  0.425000  0.025000     48.000000
[...]
 -0.425000  0.425000  0.325000     24.000000
 -0.375000  0.425000  0.325000     24.000000
 -0.475000  0.475000  0.325000     24.000000
 -0.425000  0.475000  0.325000     48.000000
 -0.475000 -0.475000  0.325000     24.000000
 -0.425000 -0.475000  0.325000     24.000000
 -0.375000  0.375000  0.375000      6.000000
 -0.425000  0.425000  0.375000     24.000000
 -0.475000  0.475000  0.375000     24.000000
 -0.425000  0.475000  0.375000     24.000000
 -0.475000 -0.475000  0.375000     24.000000
 -0.425000  0.425000  0.425000      6.000000
 -0.475000  0.475000  0.425000     24.000000
 -0.475000 -0.475000  0.425000      8.000000
 -0.475000  0.475000  0.475000      6.000000

 Following cartesian coordinates:
            Coordinates               Weight
  0.050000  0.050000  0.050000      8.000000
  0.050000  0.100000  0.100000     24.000000
[...]
 k-point 13 :   0.1250 0.0750 0.0250  plane waves:     210
 k-point 14 :   0.1750 0.0750 0.0250  plane waves:     210
 k-point 15 :   0.2250 0.0750 0.0250  plane waves:     207
 k-point 16 :   0.2750 0.0750 0.0250  plane waves:     206
 k-point 17 :   0.3250 0.0750 0.0250  plane waves:     207
 k-point 18 :   0.3750 0.0750 0.0250  plane waves:     209
 k-point 19 :   0.4250 0.0750 0.0250  plane waves:     207
 k-point 20 :  -0.0750 0.0750 0.0250  plane waves:     211
 k-point 21 :   0.1250 0.1250 0.0250  plane waves:     208
 k-point 22 :   0.1750 0.1250 0.0250  plane waves:     207
 k-point 23 :   0.2250 0.1250 0.0250  plane waves:     207
 k-point 24 :   0.2750 0.1250 0.0250  plane waves:     209
 k-point 25 :   0.3250 0.1250 0.0250  plane waves:     208
 k-point 26 :   0.3750 0.1250 0.0250  plane waves:     209
 k-point 27 :   0.4250 0.1250 0.0250  plane waves:     212
 k-point 28 :  -0.1250 0.1250 0.0250  plane waves:     209
 k-point 29 :  -0.0750 0.1250 0.0250  plane waves:     212
 k-point 30 :   0.1750 0.1750 0.0250  plane waves:     207
 k-point 31 :   0.2250 0.1750 0.0250  plane waves:     209
 k-point 32 :   0.2750 0.1750 0.0250  plane waves:     210
 k-point 33 :   0.3250 0.1750 0.0250  plane waves:     211
 k-point 34 :   0.3750 0.1750 0.0250  plane waves:     212
 k-point 35 :  -0.1750 0.1750 0.0250  plane waves:     207
 k-point 36 :  -0.1250 0.1750 0.0250  plane waves:     210
 k-point 37 :   0.2250 0.2250 0.0250  plane waves:     213
 k-point 38 :   0.2750 0.2250 0.0250  plane waves:     213
 k-point 39 :   0.3250 0.2250 0.0250  plane waves:     213
 k-point 40 :   0.3750 0.2250 0.0250  plane waves:     212
 k-point 41 :  -0.2250 0.2250 0.0250  plane waves:     209
 k-point 42 :  -0.1750 0.2250 0.0250  plane waves:     211
 k-point 43 :  -0.1250 0.2250 0.0250  plane waves:     209
 k-point 44 :   0.2750 0.2750 0.0250  plane waves:     216
 k-point 45 :   0.3250 0.2750 0.0250  plane waves:     213
 k-point 46 :  -0.2750 0.2750 0.0250  plane waves:     207
 k-point 47 :  -0.2250 0.2750 0.0250  plane waves:     207
 k-point 48 :  -0.1750 0.2750 0.0250  plane waves:     210
 k-point 49 :   0.3250 0.3250 0.0250  plane waves:     210
 k-point 50 :  -0.3250 0.3250 0.0250  plane waves:     211
 k-point 51 :  -0.2750 0.3250 0.0250  plane waves:     206
 k-point 52 :  -0.2250 0.3250 0.0250  plane waves:     209
 k-point 53 :  -0.1750 0.3250 0.0250  plane waves:     209
 k-point 54 :  -0.3750 0.3750 0.0250  plane waves:     206
 k-point 55 :  -0.3250 0.3750 0.0250  plane waves:     208
 k-point 56 :  -0.2750 0.3750 0.0250  plane waves:     207
 k-point 57 :  -0.2250 0.3750 0.0250  plane waves:     211
 k-point 58 :  -0.4250 0.4250 0.0250  plane waves:     204
 k-point 59 :  -0.3750 0.4250 0.0250  plane waves:     210
 k-point 60 :  -0.3250 0.4250 0.0250  plane waves:     212
[...]
 k-point 85 :   0.4250 0.0750 0.0750  plane waves:     208
 k-point 86 :  -0.0750 0.0750 0.0750  plane waves:     213
 k-point 87 :   0.1250 0.1250 0.0750  plane waves:     210
 k-point 88 :   0.1750 0.1250 0.0750  plane waves:     209
 k-point 89 :   0.2250 0.1250 0.0750  plane waves:     207
 k-point 90 :   0.2750 0.1250 0.0750  plane waves:     211
 k-point 91 :   0.3250 0.1250 0.0750  plane waves:     210
 k-point 92 :   0.3750 0.1250 0.0750  plane waves:     209
 k-point 93 :  -0.1250 0.1250 0.0750  plane waves:     212
 k-point 94 :   0.1750 0.1750 0.0750  plane waves:     209
 k-point 95 :   0.2250 0.1750 0.0750  plane waves:     212
 k-point 96 :   0.2750 0.1750 0.0750  plane waves:     210
 k-point 97 :   0.3250 0.1750 0.0750  plane waves:     210
 k-point 98 :   0.3750 0.1750 0.0750  plane waves:     212
 k-point 99 :  -0.1750 0.1750 0.0750  plane waves:     211
 k-point ** :  -0.1250 0.1750 0.0750  plane waves:     210
 k-point ** :   0.2250 0.2250 0.0750  plane waves:     212
 k-point ** :   0.2750 0.2250 0.0750  plane waves:     212
 k-point ** :   0.3250 0.2250 0.0750  plane waves:     214
 k-point ** :  -0.2250 0.2250 0.0750  plane waves:     210
 k-point ** :  -0.1750 0.2250 0.0750  plane waves:     209
 k-point ** :   0.2750 0.2750 0.0750  plane waves:     210
 k-point ** :   0.3250 0.2750 0.0750  plane waves:     212
 k-point ** :  -0.2750 0.2750 0.0750  plane waves:     208
 k-point ** :  -0.2250 0.2750 0.0750  plane waves:     209
 k-point ** :  -0.1750 0.2750 0.0750  plane waves:     211
 k-point ** :  -0.3250 0.3250 0.0750  plane waves:     208
 k-point ** :  -0.2750 0.3250 0.0750  plane waves:     210
 k-point ** :  -0.2250 0.3250 0.0750  plane waves:     209
 k-point ** :  -0.3750 0.3750 0.0750  plane waves:     210
 k-point ** :  -0.3250 0.3750 0.0750  plane waves:     213
 k-point ** :  -0.2750 0.3750 0.0750  plane waves:     212
 k-point ** :  -0.2250 0.3750 0.0750  plane waves:     208
 k-point ** :  -0.4250 0.4250 0.0750  plane waves:     210
 k-point ** :  -0.3750 0.4250 0.0750  plane waves:     211
 k-point ** :  -0.3250 0.4250 0.0750  plane waves:     213
 k-point ** :  -0.2750 0.4250 0.0750  plane waves:     215
 k-point ** :  -0.4750 0.4750 0.0750  plane waves:     209
 k-point ** :  -0.4250 0.4750 0.0750  plane waves:     211
 k-point ** :  -0.3750 0.4750 0.0750  plane waves:     212
 k-point ** :  -0.3250 0.4750 0.0750  plane waves:     214
 k-point ** :  -0.2750 0.4750 0.0750  plane waves:     216
 k-point ** :  -0.4750-0.4750 0.0750  plane waves:     212
 k-point ** :  -0.4250-0.4750 0.0750  plane waves:     213
 k-point ** :  -0.3750-0.4750 0.0750  plane waves:     213
 k-point ** :  -0.3250-0.4750 0.0750  plane waves:     215
 k-point ** :  -0.4250-0.4250 0.0750  plane waves:     212
 k-point ** :  -0.3750-0.4250 0.0750  plane waves:     214
 k-point ** :  -0.3250-0.4250 0.0750  plane waves:     215
 k-point ** :  -0.3750-0.3750 0.0750  plane waves:     214
 k-point ** :   0.1250 0.1250 0.1250  plane waves:     210
 k-point ** :   0.1750 0.1250 0.1250  plane waves:     211
 k-point ** :   0.2250 0.1250 0.1250  plane waves:     211
 k-point ** :   0.2750 0.1250 0.1250  plane waves:     210
 k-point ** :   0.3250 0.1250 0.1250  plane waves:     212
 k-point ** :   0.3750 0.1250 0.1250  plane waves:     210
 k-point ** :  -0.1250 0.1250 0.1250  plane waves:     209
 k-point ** :   0.1750 0.1750 0.1250  plane waves:     212
 k-point ** :   0.2250 0.1750 0.1250  plane waves:     212
 k-point ** :   0.2750 0.1750 0.1250  plane waves:     210
 k-point ** :   0.3250 0.1750 0.1250  plane waves:     211
 k-point ** :  -0.1750 0.1750 0.1250  plane waves:     211
 k-point ** :   0.2250 0.2250 0.1250  plane waves:     214
 k-point ** :   0.2750 0.2250 0.1250  plane waves:     211
 k-point ** :   0.3250 0.2250 0.1250  plane waves:     212
 k-point ** :  -0.2250 0.2250 0.1250  plane waves:     210
 k-point ** :  -0.1750 0.2250 0.1250  plane waves:     211
 k-point ** :   0.2750 0.2750 0.1250  plane waves:     212
 k-point ** :  -0.2750 0.2750 0.1250  plane waves:     212
 k-point ** :  -0.2250 0.2750 0.1250  plane waves:     212
 k-point ** :  -0.3250 0.3250 0.1250  plane waves:     212
 k-point ** :  -0.2750 0.3250 0.1250  plane waves:     214
 k-point ** :  -0.2250 0.3250 0.1250  plane waves:     212
 k-point ** :  -0.3750 0.3750 0.1250  plane waves:     212
 k-point ** :  -0.3250 0.3750 0.1250  plane waves:     214
[...]
 k-point ** :  -0.4250 0.4250 0.3250  plane waves:     218
 k-point ** :  -0.3750 0.4250 0.3250  plane waves:     218
 k-point ** :  -0.4750 0.4750 0.3250  plane waves:     218
 k-point ** :  -0.4250 0.4750 0.3250  plane waves:     221
 k-point ** :  -0.4750-0.4750 0.3250  plane waves:     218
 k-point ** :  -0.4250-0.4750 0.3250  plane waves:     220
 k-point ** :  -0.3750 0.3750 0.3750  plane waves:     220
 k-point ** :  -0.4250 0.4250 0.3750  plane waves:     220
 k-point ** :  -0.4750 0.4750 0.3750  plane waves:     220
 k-point ** :  -0.4250 0.4750 0.3750  plane waves:     222
 k-point ** :  -0.4750-0.4750 0.3750  plane waves:     224
 k-point ** :  -0.4250 0.4250 0.4250  plane waves:     228
 k-point ** :  -0.4750 0.4750 0.4250  plane waves:     230
 k-point ** :  -0.4750-0.4750 0.4250  plane waves:     236
 k-point ** :  -0.4750 0.4750 0.4750  plane waves:     236

 maximum and minimum number of plane-waves per node :       236      204

 maximum number of plane-waves:       236
 maximum index in each direction:
   IXMAX=    4   IYMAX=    4   IZMAX=    4
   IXMIN=   -4   IYMIN=   -4   IZMIN=   -4

 serial   3D FFT for wavefunctions
 parallel 3D FFT for charge:
    minimum data exchange during FFTs selected (reduces bandwidth)

 initial charge density was supplied:
 number of electron      10.9999986 magnetization
 keeping initial charge density in first step

 Maximum index for augmentation-charges          345 (set IRDMAX)

 First call to EWALD:  gamma=   0.677
 Maximum number of real-space cells 3x 3x 3
 Maximum number of reciprocal cells 3x 3x 3

--------------------------------------- Iteration      1(   1)  ---------------------------------------

 eigenvalue-minimisations  : 26960
 total energy-change (2. order) :-0.9984311E+01  (-0.5535351E+03)
 number of electron      10.9999986 magnetization
 augmentation part       10.9999986 magnetization

 Free energy of the ion-electron system (eV)
  alpha Z        PSCENC =       124.80261925
  Ewald energy   TEWEN  =      -960.51057943
  -Hartree energ DENC   =      -120.12140609
  -exchange      EXHF   =         0.00000000
  -V(xc)+E(xc)   XCENC  =        26.43670297
  PAW double counting   =      1499.00809759    -1490.69177055
  entropy T*S    EENTRO =        -0.02714567
  eigenvalues    EBANDS =      -135.24396784
  atomic energy  EATOM  =      1046.36313925
  Solvation  Ediel_sol  =         0.00000000
  free energy    TOTEN  =        -9.98431053 eV

  energy without entropy =       -9.95716486  energy(sigma->0) =       -9.97073769

[...]

 eigenvalue-minimisations  : 31680
 total energy-change (2. order) :-0.1873559E-09  (-0.1407756E-13)
 number of electron      10.9999986 magnetization
 augmentation part       10.9999986 magnetization

[...]

--------------------------------------- Iteration      1(   6)  ---------------------------------------

 eigenvalue-minimisations  : 21440
 total energy-change (2. order) : 0.3749392E-09  ( 0.2669748E-13)
 number of electron      10.9999986 magnetization
 augmentation part       10.9999986 magnetization

 Free energy of the ion-electron system (eV)
  alpha Z        PSCENC =       124.80261925
  Ewald energy   TEWEN  =      -960.51057943
  -Hartree energ DENC   =      -120.12140609
  -exchange      EXHF   =         0.00000000
  -V(xc)+E(xc)   XCENC  =        26.43670297
  PAW double counting   =      1499.00809759    -1490.69177055
  entropy T*S    EENTRO =        -0.03068642
  eigenvalues    EBANDS =      -136.40821417
  atomic energy  EATOM  =      1046.36313925
  Solvation  Ediel_sol  =         0.00000000
  free energy    TOTEN  =       -11.15209762 eV

  energy without entropy =      -11.12141119  energy(sigma->0) =      -11.13675441

 average (electrostatic) potential at core
  the test charge radii are     1.2165
  (the norm of the test charge is              1.0000)
       1 -34.9059

 E-fermi :   4.8466     XC(G=0): -12.6479     alpha+bet :-12.9149

 k-point     1 :       0.0250    0.0250    0.0250
  band No.  band energies     occupation
      1     -24.7519      2.00000
      2     -24.6976      2.00000
      3     -24.6976      2.00000
      4      -0.9314      2.00000
      5       5.0925      0.08206
      6       5.0925      0.08206
      7       5.3431      0.00045
      8       8.0113      0.00000
      9       8.0113      0.00000
     10      20.5078      0.00000
     11      20.7071      0.00000
     12      20.7071      0.00000
     13      29.6987      0.00000
     14      29.6987      0.00000
     15      33.3078      0.00000
     16      35.2124      0.00000
     17      35.2124      0.00000
     18      40.2324      0.00000
     19      40.9103      0.00000
     20      40.9103      0.00000
     21      41.8421      0.00000
     22      44.0127      0.00000
     23      53.6757      0.00000
     24      53.6757      0.00000
     25      53.9858      0.00000
     26      63.4057      0.00000
     27      63.4057      0.00000
     28      64.4159      0.00000
     29      67.0126      0.00000
     30      68.6822      0.00000
     31      68.6822      0.00000
     32      69.5160      0.00000
     33      70.7254      0.00000
     34      70.7254      0.00000
     35      71.5300      0.00000
     36      73.1586      0.00000
     37      73.1586      0.00000
     38      74.0435      0.00000
     39      74.8823      0.00000
     40      74.8824      0.00000

[...]

 k-point   250 :      -0.4750    0.4750    0.4750
  band No.  band energies     occupation
      1     -25.6387      2.00000
      2     -25.6319      2.00000
      3     -25.6319      2.00000
      4       1.1106      2.00000
      5       1.1280      2.00000
      6      10.2468      0.00000
      7      10.2468      0.00000
      8      10.3999      0.00000
      9      14.0657      0.00000
     10      14.4747      0.00000
     11      14.4747      0.00000
     12      23.5101      0.00000
     13      25.8701      0.00000
     14      25.9056      0.00000
     15      30.1296      0.00000
     16      41.6748      0.00000
     17      41.6748      0.00000
     18      41.7650      0.00000
     19      42.3347      0.00000
     20      45.8416      0.00000
     21      45.8641      0.00000
     22      45.8642      0.00000
     23      51.4302      0.00000
     24      54.2297      0.00000
     25      54.4559      0.00000
     26      54.4560      0.00000
     27      57.0408      0.00000
     28      57.0408      0.00000
     29      57.4545      0.00000
     30      59.6346      0.00000
     31      59.7376      0.00000
     32      60.2691      0.00000
     33      60.2691      0.00000
     34      61.1951      0.00000
     35      62.8386      0.00000
     36      63.4821      0.00000
     37      63.4821      0.00000
     38      65.8909      0.00000
     39      97.0580      0.00000
     40      97.0592      0.00000

 soft charge-density along one line, spin component           1
         0         1         2         3         4         5         6         7         8         9
 total charge-density along one line

------------------------ aborting loop because EDIFF is reached ----------------------------------------

  FORCE on cell =-STRESS in cart. coord.  units (eV):
  Direction    XX          YY          ZZ          XY          YZ          ZX
  Alpha Z   124.80262   124.80262   124.80262
  Ewald    -320.17018  -320.17018  -320.17018    -0.00000    -0.00000     0.00000
  Hartree    40.04783    40.04783    40.04783     0.00000     0.00000     0.00000
  E(xc)     -46.88477   -46.88477   -46.88477    -0.00000    -0.00000    -0.00000
  Local     102.78371   102.78371   102.78371    -0.00000    -0.00000    -0.00000
  n-local   -42.90926   -42.12190   -40.55989     3.32749    -2.38975    -3.02248
  augment    26.17736    26.17736    26.17736    -0.00000    -0.00000    -0.00000
  Kinetic   114.11425   112.47444   116.57709    -0.32300     0.95566     1.70147
  Fock        0.00000     0.00000     0.00000     0.00000     0.00000     0.00000
  Total      -0.71852    -0.71852    -0.71852    -0.00000     0.00000    -0.00000
  in kB     -64.02103   -64.02103   -64.02103    -0.00000     0.00000    -0.00000

 VOLUME and BASIS-vectors are now :
  energy-cutoff  :      300.00
  volume of cell :       17.98
      direct lattice vectors                 reciprocal lattice vectors
    -1.650400000  1.650400000  1.650400000     0.000000000  0.302956859  0.302956859
     1.650400000 -1.650400000  1.650400000     0.302956859  0.000000000  0.302956859
     1.650400000  1.650400000 -1.650400000     0.302956859  0.302956859  0.000000000

  length of vectors
     2.858576653  2.858576653  2.858576653     0.428445699  0.428445699  0.428445699

 FORCES acting on ions
    electron-ion (+dipol)            ewald-force                    non-local-force                 convergence-correction
   -.194E-14 -.129E-14 0.535E-15   0.544E-15 -.107E-14 -.107E-14   -.646E-26 -.485E-26 -.808E-26   0.476E-14 -.128E-14 -.334E-14
   -.194E-14 -.129E-14 0.535E-15   0.544E-15 -.107E-14 -.107E-14   -.646E-26 -.485E-26 -.808E-26   0.476E-14 -.128E-14 -.334E-14

 POSITION                                       TOTAL-FORCE (eV/Angst)
      0.00000      0.00000      0.00000         0.000000     -0.000000      0.000000
    total drift:                                0.000000     -0.000000     -0.000000

  FREE ENERGIE OF THE ION-ELECTRON SYSTEM (eV)
  free  energy   TOTEN  =       -11.15209762 eV

  energy  without entropy=      -11.12141119  energy(sigma->0) =      -11.13675441

 writing wavefunctions