 vasp.5.4.4.18Apr17-6-g9f103f2a35 (build May 20 2018 16:52:39) complex

 executed on             LinuxIFC date 2022.10.01  22:59:55

 INCAR:
 POTCAR:    PAW Ni
 POTCAR:    PAW Ni
   VRHFIN =Ni:

   TITEL  = PAW Ni
   POMASS =   58.690; ZVAL   =   10.000    mass and valenz
   ENMAX  =  269.561; ENMIN  =  202.171 eV
   QCUT   =   -4.451; QGAM   =    8.902    optimization parameters

   Description
     l     E      TYP  RCUT    TYP  RCUT
     2   .000     23  2.300
     2   .000     23  2.300
     0   .000     23  2.300
     0   .000     23  2.300
     1  -.200     23  2.300
     1   .000     23  2.300
     3   .000      7   .000

  PAW Ni                                :

 POSCAR: fcc Ni
  positions in direct lattice
 exchange correlation table for  LEXCH =        7
   RHO(1)=    0.500       N(1)  =     2000
   RHO(2)=  100.500       N(2)  =     4000

 ion  position               nearest neighbor table
   1  0.000  0.000  0.000-

  LATTYP: Found a face centered cubic cell.
 ALAT       =     3.5295000000

  Lattice vectors:

 A1 = (   1.7647500000,   1.7647500000,   0.0000000000)
 A2 = (   0.0000000000,   1.7647500000,   1.7647500000)
 A3 = (   1.7647500000,   0.0000000000,   1.7647500000)

Analysis of symmetry for initial positions (statically):
 Subroutine PRICEL returns:
 Original cell was already a primitive cell.

 Routine SETGRP: Setting up the symmetry group for a
 face centered cubic supercell.

 Subroutine GETGRP returns: Found 48 space group operations
 (whereof 48 operations were pure point group operations)
 out of a pool of 48 trial point group operations.

The static configuration has the point symmetry O_h .

Analysis of symmetry for dynamics (positions and initial velocities):
 Subroutine PRICEL returns:
 Original cell was already a primitive cell.

[...]

The dynamic configuration has the point symmetry O_h .

Analysis of structural, dynamic, and magnetic symmetry:
 Subroutine PRICEL returns:
 Original cell was already a primitive cell.

 Routine SETGRP: Setting up the symmetry group for a
 face centered cubic supercell.

 Subroutine GETGRP returns: Found 48 space group operations
 (whereof 48 operations were pure point group operations)
 out of a pool of 48 trial point group operations.

The magnetic configuration has the point symmetry O_h .

 Subroutine INISYM returns: Found 48 space group operations
 (whereof 48 operations are pure point group operations),
 and found     1 'primitive' translations

 KPOINTS: K-points along high symmetry lines for b
  interpolating k-points between supplied coordinates
  k-points in reciprocal lattice
Space group operators:
 irot       det(A)        alpha          n_x          n_y          n_z        tau_x        tau_y        tau_z
    1     1.000000     0.000000     1.000000     0.000000     0.000000     0.000000     0.000000     0.000000
    2    -1.000000     0.000000     1.000000     0.000000     0.000000     0.000000     0.000000     0.000000
    3     1.000000   120.000000    -0.577350    -0.577350    -0.577350     0.000000     0.000000     0.000000
    4    -1.000000   120.000000    -0.577350    -0.577350    -0.577350     0.000000     0.000000     0.000000
    5     1.000000   120.000000     0.577350     0.577350     0.577350     0.000000     0.000000     0.000000
    6    -1.000000   120.000000     0.577350     0.577350     0.577350     0.000000     0.000000     0.000000
    7     1.000000    90.000000     0.000000    -1.000000     0.000000     0.000000     0.000000     0.000000
    8    -1.000000    90.000000     0.000000    -1.000000     0.000000     0.000000     0.000000     0.000000
    9     1.000000   180.000000     0.707107     0.707107     0.000000     0.000000     0.000000     0.000000
   10    -1.000000   180.000000     0.707107     0.707107     0.000000     0.000000     0.000000     0.000000
   11     1.000000    90.000000     1.000000     0.000000     0.000000     0.000000     0.000000     0.000000
   12    -1.000000    90.000000     1.000000     0.000000     0.000000     0.000000     0.000000     0.000000
   13     1.000000   180.000000     0.000000     1.000000     0.000000     0.000000     0.000000     0.000000
   14    -1.000000   180.000000     0.000000     1.000000     0.000000     0.000000     0.000000     0.000000
   15     1.000000   120.000000     0.577350     0.577350    -0.577350     0.000000     0.000000     0.000000
   16    -1.000000   120.000000     0.577350     0.577350    -0.577350     0.000000     0.000000     0.000000
   17     1.000000   120.000000     0.577350    -0.577350    -0.577350     0.000000     0.000000     0.000000
   18    -1.000000   120.000000     0.577350    -0.577350    -0.577350     0.000000     0.000000     0.000000
   19     1.000000    90.000000     0.000000     1.000000     0.000000     0.000000     0.000000     0.000000
   20    -1.000000    90.000000     0.000000     1.000000     0.000000     0.000000     0.000000     0.000000
   21     1.000000    90.000000     0.000000     0.000000    -1.000000     0.000000     0.000000     0.000000
   22    -1.000000    90.000000     0.000000     0.000000    -1.000000     0.000000     0.000000     0.000000
   23     1.000000   180.000000     0.000000     0.707107     0.707107     0.000000     0.000000     0.000000
   24    -1.000000   180.000000     0.000000     0.707107     0.707107     0.000000     0.000000     0.000000
   25     1.000000   120.000000    -0.577350     0.577350     0.577350     0.000000     0.000000     0.000000
   26    -1.000000   120.000000    -0.577350     0.577350     0.577350     0.000000     0.000000     0.000000
   27     1.000000   120.000000    -0.577350     0.577350    -0.577350     0.000000     0.000000     0.000000
   28    -1.000000   120.000000    -0.577350     0.577350    -0.577350     0.000000     0.000000     0.000000
   29     1.000000   180.000000     0.000000     0.000000     1.000000     0.000000     0.000000     0.000000
   30    -1.000000   180.000000     0.000000     0.000000     1.000000     0.000000     0.000000     0.000000
   31     1.000000    90.000000    -1.000000     0.000000     0.000000     0.000000     0.000000     0.000000
   32    -1.000000    90.000000    -1.000000     0.000000     0.000000     0.000000     0.000000     0.000000
   33     1.000000   180.000000     0.707107     0.000000     0.707107     0.000000     0.000000     0.000000
   34    -1.000000   180.000000     0.707107     0.000000     0.707107     0.000000     0.000000     0.000000
   35     1.000000    90.000000     0.000000     0.000000     1.000000     0.000000     0.000000     0.000000
   36    -1.000000    90.000000     0.000000     0.000000     1.000000     0.000000     0.000000     0.000000
   37     1.000000   120.000000    -0.577350    -0.577350     0.577350     0.000000     0.000000     0.000000
   38    -1.000000   120.000000    -0.577350    -0.577350     0.577350     0.000000     0.000000     0.000000
   39     1.000000   180.000000     1.000000     0.000000     0.000000     0.000000     0.000000     0.000000
   40    -1.000000   180.000000     1.000000     0.000000     0.000000     0.000000     0.000000     0.000000
   41     1.000000   120.000000     0.577350    -0.577350     0.577350     0.000000     0.000000     0.000000
   42    -1.000000   120.000000     0.577350    -0.577350     0.577350     0.000000     0.000000     0.000000
   43     1.000000   180.000000     0.707107    -0.707107     0.000000     0.000000     0.000000     0.000000
   44    -1.000000   180.000000     0.707107    -0.707107     0.000000     0.000000     0.000000     0.000000
   45     1.000000   180.000000     0.707107     0.000000    -0.707107     0.000000     0.000000     0.000000
   46    -1.000000   180.000000     0.707107     0.000000    -0.707107     0.000000     0.000000     0.000000
   47     1.000000   180.000000     0.000000    -0.707107     0.707107     0.000000     0.000000     0.000000
   48    -1.000000   180.000000     0.000000    -0.707107     0.707107     0.000000     0.000000     0.000000

 SYSTEM =  fcc Ni
 POSCAR =  fcc Ni

 Startparameter for this run:
   NWRITE =      2    write-flag & timer
   PREC   = normal    normal or accurate (medium, high low for compatibility)
   ISTART =      0    job   : 0-new  1-cont  2-samecut
   ICHARG =     11    charge: 1-file 2-atom 10-const
   ISPIN  =      2    spin polarized calculation?
   LNONCOLLINEAR =      F non collinear calculations
   LSORBIT =      F    spin-orbit coupling
   INIWAV =      1    electr: 0-lowe 1-rand  2-diag
   LASPH  =      F    aspherical Exc in radial PAW
   METAGGA=      F    non-selfconsistent MetaGGA calc.

 Electronic Relaxation 1
   ENCUT  =  500.0 eV  36.75 Ry    6.06 a.u.   4.55  4.55  4.55*2*pi/ulx,y,z
   ENINI  =  500.0     initial cutoff
   ENAUG  =  544.6 eV  augmentation charge cutoff
   NELM   =     60;   NELMIN=  2; NELMDL= -5     # of ELM steps
   EDIFF  = 0.1E-06   stopping-criterion for ELM
   LREAL  =      F    real-space projection
   NLSPLINE    = F    spline interpolate recip. space projectors
   LCOMPAT=      F    compatible to vasp.4.4
   GGA_COMPAT  = T    GGA compatible to vasp.4.4-vasp.4.6
   LMAXPAW     = -100 max onsite density
   LMAXMIX     =    2 max onsite mixed and CHGCAR
   VOSKOWN=      0    Vosko Wilk Nusair interpolation
   ROPT   =    0.00000
 Ionic relaxation
   EDIFFG = 0.1E-05   stopping-criterion for IOM
   NSW    =      0    number of steps for IOM
   NBLOCK =      1;   KBLOCK =      1    inner block; outer block
   IBRION =     -1    ionic relax: 0-MD 1-quasi-New 2-CG
   NFREE  =      0    steps in history (QN), initial steepest desc. (CG)
   ISIF   =      2    stress and relaxation
   IWAVPR =     10    prediction:  0-non 1-charg 2-wave 3-comb
   ISYM   =      2    0-nonsym 1-usesym 2-fastsym
   LCORR  =      T    Harris-Foulkes like correction to forces

   POTIM  = 0.5000    time-step for ionic-motion
   TEIN   =    0.0    initial temperature
   TEBEG  =    0.0;   TEEND  =   0.0 temperature during run
   SMASS  =  -3.00    Nose mass-parameter (am)
   estimated Nose-frequenzy (Omega)   =  0.10E-29 period in steps =****** mass=  -0.142E-27a.u.
   SCALEE = 1.0000    scale energy and forces
   NPACO  =    256;   APACO  = 16.0  distance and # of slots for P.C.
   PSTRESS=    0.0 pullay stress

  Mass of Ions in am
   POMASS =  58.69
  Ionic Valenz
   ZVAL   =  10.00
  Atomic Wigner-Seitz radii
  virtual crystal weights
   VCA    =   1.00
   NELECT =      10.0000    total number of electrons
   NUPDOWN=      -1.0000    fix difference up-down

 DOS related values:
   EMIN   =  10.00;   EMAX   =-10.00  energy-range for DOS
   EFERMI =   0.00
   ISMEAR =     1;   SIGMA  =   0.20  broadening in eV -4-tet -1-fermi 0-gaus

 Electronic relaxation 2 (details)
   IALGO  =     38    algorithm
   LDIAG  =      T    sub-space diagonalisation (order eigenvalues)
   LSUBROT=      F    optimize rotation matrix (better conditioning)
   TURBO    =      0    0=normal 1=particle mesh
   IRESTART =      0    0=no restart 2=restart with 2 vectors
   NREBOOT  =      0    no. of reboots
   NMIN     =      0    reboot dimension
   EREF     =   0.00    reference energy to select bands
[...]
   0.05263158  0.31578947  0.31578947       0.010
   0.09210526  0.30263158  0.30263158       0.010
   0.13157895  0.28947368  0.28947368       0.010
   0.17105263  0.27631579  0.27631579       0.010
   0.21052632  0.26315789  0.26315789       0.010
   0.25000000  0.25000000  0.25000000       0.010
[...]
  -0.13157895  0.13157895  0.13157895       0.010
  -0.15789474  0.15789474  0.15789474       0.010
  -0.18421053  0.18421053  0.18421053       0.010
  -0.21052632  0.21052632  0.21052632       0.010
  -0.23684211  0.23684211  0.23684211       0.010
  -0.26315789  0.26315789  0.26315789       0.010
  -0.28947368  0.28947368  0.28947368       0.010
  -0.31578947  0.31578947  0.31578947       0.010
  -0.34210526  0.34210526  0.34210526       0.010
  -0.36842105  0.36842105  0.36842105       0.010
  -0.39473684  0.39473684  0.39473684       0.010
  -0.42105263  0.42105263  0.42105263       0.010
  -0.44736842  0.44736842  0.44736842       0.010
  -0.47368421  0.47368421  0.47368421       0.010
  -0.50000000  0.50000000  0.50000000       0.010

 k-points in reciprocal lattice and weights: K-points along high symmetry lines for b
   0.00000000  0.00000000  0.00000000       0.010
  -0.02631579  0.02631579  0.02631579       0.010
  -0.05263158  0.05263158  0.05263158       0.010
  -0.07894737  0.07894737  0.07894737       0.010
  -0.10526316  0.10526316  0.10526316       0.010
  -0.13157895  0.13157895  0.13157895       0.010
  -0.15789474  0.15789474  0.15789474       0.010
  -0.18421053  0.18421053  0.18421053       0.010
  -0.21052632  0.21052632  0.21052632       0.010
  -0.23684211  0.23684211  0.23684211       0.010
  -0.26315789  0.26315789  0.26315789       0.010
  -0.28947368  0.28947368  0.28947368       0.010
  -0.31578947  0.31578947  0.31578947       0.010
  -0.34210526  0.34210526  0.34210526       0.010
  -0.36842105  0.36842105  0.36842105       0.010
  -0.39473684  0.39473684  0.39473684       0.010
  -0.42105263  0.42105263  0.42105263       0.010
  -0.44736842  0.44736842  0.44736842       0.010
  -0.47368421  0.47368421  0.47368421       0.010
  -0.50000000  0.50000000  0.50000000       0.010
  -0.50000000  0.50000000  0.50000000       0.010
  -0.47368421  0.50000000  0.47368421       0.010
  -0.44736842  0.50000000  0.44736842       0.010
  -0.42105263  0.50000000  0.42105263       0.010
  -0.39473684  0.50000000  0.39473684       0.010
  -0.36842105  0.50000000  0.36842105       0.010
  -0.34210526  0.50000000  0.34210526       0.010
  -0.31578947  0.50000000  0.31578947       0.010
  -0.28947368  0.50000000  0.28947368       0.010
  -0.26315789  0.50000000  0.26315789       0.010
  -0.23684211  0.50000000  0.23684211       0.010
  -0.21052632  0.50000000  0.21052632       0.010
  -0.18421053  0.50000000  0.18421053       0.010
  -0.15789474  0.50000000  0.15789474       0.010
  -0.13157895  0.50000000  0.13157895       0.010
  -0.10526316  0.50000000  0.10526316       0.010
  -0.07894737  0.50000000  0.07894737       0.010
  -0.05263158  0.50000000  0.05263158       0.010
  -0.02631579  0.50000000  0.02631579       0.010
   0.00000000  0.50000000  0.00000000       0.010
   0.00000000  0.50000000  0.00000000       0.010
   0.01315789  0.48684211  0.01315789       0.010
   0.02631579  0.47368421  0.02631579       0.010
   0.03947368  0.46052632  0.03947368       0.010
   0.05263158  0.44736842  0.05263158       0.010
   0.06578947  0.43421053  0.06578947       0.010
   0.07894737  0.42105263  0.07894737       0.010
   0.09210526  0.40789474  0.09210526       0.010
   0.10526316  0.39473684  0.10526316       0.010
   0.11842105  0.38157895  0.11842105       0.010
   0.13157895  0.36842105  0.13157895       0.010
   0.14473684  0.35526316  0.14473684       0.010
   0.15789474  0.34210526  0.15789474       0.010
   0.17105263  0.32894737  0.17105263       0.010
   0.18421053  0.31578947  0.18421053       0.010
   0.19736842  0.30263158  0.19736842       0.010
   0.21052632  0.28947368  0.21052632       0.010
   0.22368421  0.27631579  0.22368421       0.010
   0.23684211  0.26315789  0.23684211       0.010
   0.25000000  0.25000000  0.25000000       0.010
[...]
   0.00000000  0.13157895  0.00000000       0.010
   0.00000000  0.15789474  0.00000000       0.010
   0.00000000  0.18421053  0.00000000       0.010
   0.00000000  0.21052632  0.00000000       0.010
   0.00000000  0.23684211  0.00000000       0.010
   0.00000000  0.26315789  0.00000000       0.010
   0.00000000  0.28947368  0.00000000       0.010
   0.00000000  0.31578947  0.00000000       0.010
   0.00000000  0.34210526  0.00000000       0.010
   0.00000000  0.36842105  0.00000000       0.010
   0.00000000  0.39473684  0.00000000       0.010
   0.00000000  0.42105263  0.00000000       0.010
   0.00000000  0.44736842  0.00000000       0.010
   0.00000000  0.47368421  0.00000000       0.010
   0.00000000  0.50000000  0.00000000       0.010

 position of ions in fractional coordinates (direct lattice)
   0.00000000  0.00000000  0.00000000

 position of ions in cartesian coordinates  (Angst):
   0.00000000  0.00000000  0.00000000

 k-point  1 :   0.0000 0.0000 0.0000  plane waves:     283
 k-point  2 :  -0.0263 0.0263 0.0263  plane waves:     283
 k-point  3 :  -0.0526 0.0526 0.0526  plane waves:     282
 k-point  4 :  -0.0789 0.0789 0.0789  plane waves:     287
 k-point  5 :  -0.1053 0.1053 0.1053  plane waves:     289
 k-point  6 :  -0.1316 0.1316 0.1316  plane waves:     291
 k-point  7 :  -0.1579 0.1579 0.1579  plane waves:     288
 k-point  8 :  -0.1842 0.1842 0.1842  plane waves:     282
 k-point  9 :  -0.2105 0.2105 0.2105  plane waves:     280
 k-point 10 :  -0.2368 0.2368 0.2368  plane waves:     277
 k-point 11 :  -0.2632 0.2632 0.2632  plane waves:     277
 k-point 12 :  -0.2895 0.2895 0.2895  plane waves:     278
 k-point 13 :  -0.3158 0.3158 0.3158  plane waves:     278
 k-point 14 :  -0.3421 0.3421 0.3421  plane waves:     284
 k-point 15 :  -0.3684 0.3684 0.3684  plane waves:     274
 k-point 16 :  -0.3947 0.3947 0.3947  plane waves:     275
 k-point 17 :  -0.4211 0.4211 0.4211  plane waves:     276
 k-point 18 :  -0.4474 0.4474 0.4474  plane waves:     274
 k-point 19 :  -0.4737 0.4737 0.4737  plane waves:     272
 k-point 20 :  -0.5000 0.5000 0.5000  plane waves:     272
 k-point 21 :  -0.5000 0.5000 0.5000  plane waves:     272
 k-point 22 :  -0.4737 0.5000 0.4737  plane waves:     272
 k-point 23 :  -0.4474 0.5000 0.4474  plane waves:     272
 k-point 24 :  -0.4211 0.5000 0.4211  plane waves:     278
 k-point 25 :  -0.3947 0.5000 0.3947  plane waves:     276
 k-point 26 :  -0.3684 0.5000 0.3684  plane waves:     278
 k-point 27 :  -0.3421 0.5000 0.3421  plane waves:     274
 k-point 28 :  -0.3158 0.5000 0.3158  plane waves:     274
 k-point 29 :  -0.2895 0.5000 0.2895  plane waves:     272
 k-point 30 :  -0.2632 0.5000 0.2632  plane waves:     276
 k-point 31 :  -0.2368 0.5000 0.2368  plane waves:     276
 k-point 32 :  -0.2105 0.5000 0.2105  plane waves:     272
 k-point 33 :  -0.1842 0.5000 0.1842  plane waves:     274
 k-point 34 :  -0.1579 0.5000 0.1579  plane waves:     274
 k-point 35 :  -0.1316 0.5000 0.1316  plane waves:     278
 k-point 36 :  -0.1053 0.5000 0.1053  plane waves:     276
 k-point 37 :  -0.0789 0.5000 0.0789  plane waves:     278
 k-point 38 :  -0.0526 0.5000 0.0526  plane waves:     272
 k-point 39 :  -0.0263 0.5000 0.0263  plane waves:     272
 k-point 40 :   0.0000 0.5000 0.0000  plane waves:     272
 k-point 41 :   0.0000 0.5000 0.0000  plane waves:     272
 k-point 42 :   0.0132 0.4868 0.0132  plane waves:     272
 k-point 43 :   0.0263 0.4737 0.0263  plane waves:     270
 k-point 44 :   0.0395 0.4605 0.0395  plane waves:     272
 k-point 45 :   0.0526 0.4474 0.0526  plane waves:     276
 k-point 46 :   0.0658 0.4342 0.0658  plane waves:     277
 k-point 47 :   0.0789 0.4211 0.0789  plane waves:     277
 k-point 48 :   0.0921 0.4079 0.0921  plane waves:     279
 k-point 49 :   0.1053 0.3947 0.1053  plane waves:     283
 k-point 50 :   0.1184 0.3816 0.1184  plane waves:     283
 k-point 51 :   0.1316 0.3684 0.1316  plane waves:     284
 k-point 52 :   0.1447 0.3553 0.1447  plane waves:     284
 k-point 53 :   0.1579 0.3421 0.1579  plane waves:     284
 k-point 54 :   0.1711 0.3289 0.1711  plane waves:     281
 k-point 55 :   0.1842 0.3158 0.1842  plane waves:     283
 k-point 56 :   0.1974 0.3026 0.1974  plane waves:     286
 k-point 57 :   0.2105 0.2895 0.2105  plane waves:     288
 k-point 58 :   0.2237 0.2763 0.2237  plane waves:     287
 k-point 59 :   0.2368 0.2632 0.2368  plane waves:     287
 k-point 60 :   0.2500 0.2500 0.2500  plane waves:     289
[...]
 k-point 85 :   0.0000 0.1053 0.0000  plane waves:     280
 k-point 86 :   0.0000 0.1316 0.0000  plane waves:     280
 k-point 87 :   0.0000 0.1579 0.0000  plane waves:     283
 k-point 88 :   0.0000 0.1842 0.0000  plane waves:     283
 k-point 89 :   0.0000 0.2105 0.0000  plane waves:     283
 k-point 90 :   0.0000 0.2368 0.0000  plane waves:     289
 k-point 91 :   0.0000 0.2632 0.0000  plane waves:     286
 k-point 92 :   0.0000 0.2895 0.0000  plane waves:     287
 k-point 93 :   0.0000 0.3158 0.0000  plane waves:     287
 k-point 94 :   0.0000 0.3421 0.0000  plane waves:     281
 k-point 95 :   0.0000 0.3684 0.0000  plane waves:     281
 k-point 96 :   0.0000 0.3947 0.0000  plane waves:     281
 k-point 97 :   0.0000 0.4211 0.0000  plane waves:     269
 k-point 98 :   0.0000 0.4474 0.0000  plane waves:     269
 k-point 99 :   0.0000 0.4737 0.0000  plane waves:     272
 k-point ** :   0.0000 0.5000 0.0000  plane waves:     272

 maximum and minimum number of plane-waves per node :       291      269

 maximum number of plane-waves:       291
 maximum index in each direction:
   IXMAX=    5   IYMAX=    4   IZMAX=    4
   IXMIN=   -4   IYMIN=   -5   IZMIN=   -5

 serial   3D FFT for wavefunctions
 parallel 3D FFT for charge:
    minimum data exchange during FFTs selected (reduces bandwidth)

 initial charge density was supplied:
 number of electron      10.0000001 magnetization       0.6075823
 keeping initial charge density in first step

 Maximum index for augmentation-charges         7803 (set IRDMAX)

 First call to EWALD:  gamma=   0.797
 Maximum number of real-space cells 3x 3x 3
 Maximum number of reciprocal cells 3x 3x 3

--------------------------------------- Iteration      1(   1)  ---------------------------------------

 eigenvalue-minimisations  :  4146
 total energy-change (2. order) : 0.2206336E+02  (-0.5352744E+03)
 number of electron      10.0000001 magnetization       0.6075823
 augmentation part       10.0000001 magnetization       0.6075823

 Free energy of the ion-electron system (eV)
  alpha Z        PSCENC =        91.31243802
  Ewald energy   TEWEN  =      -935.27465713
  -Hartree energ DENC   =      -226.57645985
  -exchange      EXHF   =         0.00000000
  -V(xc)+E(xc)   XCENC  =        30.48807410
  PAW double counting   =       914.66243539     -983.50154281
  entropy T*S    EENTRO =        -0.00203016
  eigenvalues    EBANDS =        51.48890424
  atomic energy  EATOM  =      1079.46620042
  Solvation  Ediel_sol  =         0.00000000
  free energy    TOTEN  =        22.06336220 eV

  energy without entropy =       22.06539236  energy(sigma->0) =       22.06403892

[...]

 eigenvalue-minimisations  :  4018
 total energy-change (2. order) :-0.2987621E+02  (-0.2856425E+02)
 number of electron      10.0000001 magnetization       0.6075823
 augmentation part       10.0000001 magnetization       0.6075823

[...]

--------------------------------------- Iteration      1(   6)  ---------------------------------------

 eigenvalue-minimisations  :  4306
 total energy-change (2. order) :-0.6036998E-08  (-0.6079062E-08)
 number of electron      10.0000001 magnetization       0.6075823
 augmentation part       10.0000001 magnetization       0.6075823

 Free energy of the ion-electron system (eV)
  alpha Z        PSCENC =        91.31243802
  Ewald energy   TEWEN  =      -935.27465713
  -Hartree energ DENC   =      -226.57645985
  -exchange      EXHF   =         0.00000000
  -V(xc)+E(xc)   XCENC  =        30.48807410
  PAW double counting   =       914.66243539     -983.50154281
  entropy T*S    EENTRO =        -0.01263595
  eigenvalues    EBANDS =        21.04271792
  atomic energy  EATOM  =      1079.46620042
  Solvation  Ediel_sol  =         0.00000000
  free energy    TOTEN  =        -8.39342992 eV

  energy without entropy =       -8.38079396  energy(sigma->0) =       -8.38921793

 average (electrostatic) potential at core
  the test charge radii are     0.9791
  (the norm of the test charge is              1.0000)
       1 -42.7011

 E-fermi :   4.1055     XC(G=0): -13.2179     alpha+bet :-11.7651

 spin component 1

 k-point     1 :       0.0000    0.0000    0.0000
  band No.  band energies     occupation
      1      -4.2240      1.00000
      2       2.3310      1.00000
      3       2.3311      1.00000
      4       2.3311      1.00000
      5       3.3800      1.00000
      6       3.3800      1.00000
      7      28.7531      0.00000
      8      32.3183      0.00000
      9      32.3183      0.00000
     10      32.3183      0.00000

[...]

 spin component 2

[...]

 k-point   100 :       0.0000    0.5000    0.0000
  band No.  band energies     occupation
      1       0.3186      1.00000
      2       2.8847      1.00000
      3       2.8847      1.00000
      4       4.4089     -0.02688
      5       4.7925     -0.00001
      6       4.7925     -0.00001
      7      10.6803      0.00000
      8      27.0509      0.00000
      9      29.3799      0.00000
     10      29.3799      0.00000

 soft charge-density along one line, spin component           1
         0         1         2         3         4         5         6         7         8         9
 total charge-density along one line

 soft charge-density along one line, spin component           2
         0         1         2         3         4         5         6         7         8         9
 total charge-density along one line

------------------------ aborting loop because EDIFF is reached ----------------------------------------

 total charge

# of ion       s       p       d       tot
    1        0.817   0.356   8.125   9.298

 magnetization (x)

[...]

  FORCE on cell =-STRESS in cart. coord.  units (eV):
  Direction    XX          YY          ZZ          XY          YZ          ZX
  Alpha Z    91.31244    91.31244    91.31244
  Ewald    -311.75823  -311.75823  -311.75823    -0.00000    -0.00000     0.00000
  Hartree    71.99520    71.99520    71.99520     0.00000     0.00000     0.00000
  E(xc)     -55.44376   -55.44376   -55.44376    -0.00000    -0.00000    -0.00000
  Local      99.62545    99.62545    99.62545     0.00014     0.00014     0.00014
  n-local   -31.42877   -31.80692   -31.96277    -0.38282    -0.29233     0.04056
  augment    50.71263    50.71263    50.71263    -0.00007    -0.00007    -0.00007
  Kinetic    75.14204    75.12099    75.74158    -0.09588     0.54322    -0.37043
  Fock        0.00000     0.00000     0.00000     0.00000     0.00000     0.00000
  Total      -9.95422    -9.95422    -9.95422    -0.00000    -0.00000    -0.00000
  in kB   -1450.90222 -1450.90222 -1450.90222    -0.00000    -0.00000    -0.00000

 VOLUME and BASIS-vectors are now :
  energy-cutoff  :      500.00
  volume of cell :       10.99
      direct lattice vectors                 reciprocal lattice vectors
     1.764750000  1.764750000  0.000000000     0.283326250  0.283326250 -0.283326250
     0.000000000  1.764750000  1.764750000    -0.283326250  0.283326250  0.283326250
     1.764750000  0.000000000  1.764750000     0.283326250 -0.283326250  0.283326250

  length of vectors
     2.495733384  2.495733384  2.495733384     0.490735460  0.490735460  0.490735460

 FORCES acting on ions
    electron-ion (+dipol)            ewald-force                    non-local-force                 convergence-correction
   -.882E-13 0.731E-13 -.138E-13   0.666E-15 0.191E-14 0.337E-15   0.165E-23 0.000E+00 0.000E+00   -.313E-14 -.104E-13 -.585E-14
   -.882E-13 0.731E-13 -.138E-13   0.666E-15 0.191E-14 0.337E-15   0.165E-23 0.000E+00 0.000E+00   -.313E-14 -.104E-13 -.585E-14

 POSITION                                       TOTAL-FORCE (eV/Angst)
      0.00000      0.00000      0.00000         0.000000      0.000000     -0.000000
    total drift:                               -0.000000      0.000000     -0.000000

  FREE ENERGIE OF THE ION-ELECTRON SYSTEM (eV)
  free  energy   TOTEN  =        -8.39342992 eV

  energy  without entropy=       -8.38079396  energy(sigma->0) =       -8.38921793

 total charge

[...]

 magnetization (x)

# of ion       s       p       d       tot
    1       -0.005  -0.019   0.745   0.721