 vasp.5.4.4.18Apr17-6-g9f103f2a35 (build May 20 2018 16:52:39) complex

 executed on             LinuxIFC date 2022.11.13  13:06:36

 INCAR:
 POTCAR:   PAW_GGA Mn 03Mar1998
 POTCAR:   PAW_GGA O 05Jan2001
 POTCAR:   PAW_GGA Mn 03Mar1998
   VRHFIN =Mn: d6 s1

   TITEL  = PAW_GGA Mn 03Mar1998
   POMASS =   54.938; ZVAL   =    7.000    mass and valenz
   ENMAX  =  269.887; ENMIN  =  202.415 eV
   QCUT   =   -4.454; QGAM   =    8.908    optimization parameters

   Description
     l     E      TYP  RCUT    TYP  RCUT
     2   .000     23  2.300
     2   .000     23  2.300
     0   .000     23  2.300
     0   .000     23  2.300
     1  -.200     23  2.300
     1  1.500     23  2.300
     3   .000      7   .000

 POTCAR:   PAW_GGA O 05Jan2001
   VRHFIN =O: s2p4

   TITEL  = PAW_GGA O 05Jan2001
   POMASS =   16.000; ZVAL   =    6.000    mass and valenz
   ENMAX  =  400.000; ENMIN  =  300.000 eV
   QCUT   =   -5.520; QGAM   =   11.040    optimization parameters

   Description
     l     E      TYP  RCUT    TYP  RCUT
     0   .000     23  1.200
     0  -.700     23  1.200
     1   .000     23  1.520
     1   .600     23  1.520
     2   .000      7  1.500

 PAW_GGA Mn 03Mar1998                   :
 PAW_GGA O 05Jan2001                    :

 POSCAR: MnO double fcc cell
  positions in direct lattice
  velocities in cartesian coordinates
 exchange correlation table for  LEXCH =        7
   RHO(1)=    0.500       N(1)  =     2000
   RHO(2)=  100.500       N(2)  =     4000

 ion  position               nearest neighbor table
   1  0.000  0.000  0.000-   4 2.22   4 2.22   4 2.22   3 2.22   3 2.22   3 2.22   2 3.14   2 3.14
                             2 3.14   2 3.14   2 3.14   2 3.14
   2  0.500  0.500  0.500-   3 2.22   3 2.22   3 2.22   4 2.22   4 2.22   4 2.22   1 3.14   1 3.14
                             1 3.14   1 3.14   1 3.14   1 3.14
   3  0.250  0.250  0.250-   1 2.22   1 2.22   1 2.22   2 2.22   2 2.22   2 2.22
   4  0.750  0.750  0.750-   2 2.22   2 2.22   2 2.22   1 2.22   1 2.22   1 2.22

  LATTYP: Found a trigonal (rhomboedric) cell.
 ALAT       =     5.4452156982
 COS(alpha) =     0.8333333333

  Lattice vectors:

 A1 = (   4.4460000000,   2.2230000000,   2.2230000000)
 A2 = (   2.2230000000,   4.4460000000,   2.2230000000)
 A3 = (   2.2230000000,   2.2230000000,   4.4460000000)

Analysis of symmetry for initial positions (statically):
 Subroutine PRICEL returns following result:

  LATTYP: Found a face centered cubic cell.
 ALAT       =     4.4460000000

[...]

   2 primitive cells build up your supercell.

 Routine SETGRP: Setting up the symmetry group for a
 trigonal (rhombohedral) supercell.

 Subroutine GETGRP returns: Found 12 space group operations
 (whereof 12 operations were pure point group operations)
 out of a pool of 12 trial point group operations.

The static configuration has the point symmetry D_3d.

Analysis of symmetry for dynamics (positions and initial velocities):
 Subroutine PRICEL returns following result:

[...]

The dynamic configuration has the point symmetry D_3d.

Analysis of structural, dynamic, and magnetic symmetry:
 Subroutine PRICEL returns following result:

  LATTYP: Found a face centered cubic cell.
 ALAT       =     4.4460000000

  Lattice vectors:

 A1 = (   2.2230000000,   0.0000000000,  -2.2230000000)
 A2 = (   0.0000000000,   2.2230000000,  -2.2230000000)
 A3 = (   2.2230000000,   2.2230000000,   0.0000000000)

   2 primitive cells build up your supercell.

 Routine SETGRP: Setting up the symmetry group for a
 trigonal (rhombohedral) supercell.

 Subroutine GETGRP returns: Found 12 space group operations
 (whereof 12 operations were pure point group operations)
 out of a pool of 12 trial point group operations.

The magnetic configuration has the point symmetry D_3d.

 Subroutine INISYM returns: Found 12 space group operations
 (whereof 12 operations are pure point group operations),
 and found     2 'primitive' translations

 KPOINTS: 20x20x20

Automatic generation of k-mesh.
Space group operators:
 irot       det(A)        alpha          n_x          n_y          n_z        tau_x        tau_y        tau_z
    1     1.000000     0.000000     1.000000     0.000000     0.000000     0.000000     0.000000     0.000000
    2    -1.000000     0.000000     1.000000     0.000000     0.000000     0.000000     0.000000     0.000000
    3     1.000000   180.000000    -0.000000     0.707107    -0.707107     0.000000     0.000000     0.000000
    4    -1.000000   180.000000    -0.000000     0.707107    -0.707107     0.000000     0.000000     0.000000
    5     1.000000   120.000000    -0.577350    -0.577350    -0.577350     0.000000     0.000000     0.000000
    6    -1.000000   120.000000    -0.577350    -0.577350    -0.577350     0.000000     0.000000     0.000000
    7     1.000000   180.000000     0.707107    -0.707107     0.000000     0.000000     0.000000     0.000000
    8    -1.000000   180.000000     0.707107    -0.707107     0.000000     0.000000     0.000000     0.000000
    9     1.000000   120.000000     0.577350     0.577350     0.577350     0.000000     0.000000     0.000000
   10    -1.000000   120.000000     0.577350     0.577350     0.577350     0.000000     0.000000     0.000000
   11     1.000000   180.000000    -0.707107     0.000000     0.707107     0.000000     0.000000     0.000000
   12    -1.000000   180.000000    -0.707107     0.000000     0.707107     0.000000     0.000000     0.000000

 Subroutine IBZKPT returns following result:

 Found    770 irreducible k-points:

 Following reciprocal coordinates:
            Coordinates               Weight
  0.025000  0.025000  0.025000      2.000000
  0.075000  0.025000  0.025000      6.000000
  0.125000  0.025000  0.025000      6.000000
  0.175000  0.025000  0.025000      6.000000
  0.225000  0.025000  0.025000      6.000000
  0.275000  0.025000  0.025000      6.000000
  0.325000  0.025000  0.025000      6.000000
  0.375000  0.025000  0.025000      6.000000
  0.425000  0.025000  0.025000      6.000000
  0.475000  0.025000  0.025000      6.000000
 -0.475000  0.025000  0.025000      6.000000
 -0.425000  0.025000  0.025000      6.000000
 -0.375000  0.025000  0.025000      6.000000
 -0.325000  0.025000  0.025000      6.000000
 -0.275000  0.025000  0.025000      6.000000
 -0.225000  0.025000  0.025000      6.000000
 -0.175000  0.025000  0.025000      6.000000
 -0.125000  0.025000  0.025000      6.000000
 -0.075000  0.025000  0.025000      6.000000
 -0.025000  0.025000  0.025000      6.000000
  0.075000  0.075000  0.025000      6.000000
  0.125000  0.075000  0.025000     12.000000
  0.175000  0.075000  0.025000     12.000000
  0.225000  0.075000  0.025000     12.000000
  0.275000  0.075000  0.025000     12.000000
  0.325000  0.075000  0.025000     12.000000
  0.375000  0.075000  0.025000     12.000000
  0.425000  0.075000  0.025000     12.000000
  0.475000  0.075000  0.025000     12.000000
 -0.475000  0.075000  0.025000     12.000000
 -0.425000  0.075000  0.025000     12.000000
 -0.375000  0.075000  0.025000     12.000000
 -0.325000  0.075000  0.025000     12.000000
 -0.275000  0.075000  0.025000     12.000000
 -0.225000  0.075000  0.025000     12.000000
 -0.175000  0.075000  0.025000     12.000000
 -0.125000  0.075000  0.025000     12.000000
 -0.075000  0.075000  0.025000     12.000000
 -0.025000  0.075000  0.025000     12.000000
  0.125000  0.125000  0.025000      6.000000
  0.175000  0.125000  0.025000     12.000000
  0.225000  0.125000  0.025000     12.000000
  0.275000  0.125000  0.025000     12.000000
  0.325000  0.125000  0.025000     12.000000
  0.375000  0.125000  0.025000     12.000000
  0.425000  0.125000  0.025000     12.000000
  0.475000  0.125000  0.025000     12.000000
 -0.475000  0.125000  0.025000     12.000000
 -0.425000  0.125000  0.025000     12.000000
 -0.375000  0.125000  0.025000     12.000000
 -0.325000  0.125000  0.025000     12.000000
 -0.275000  0.125000  0.025000     12.000000
 -0.225000  0.125000  0.025000     12.000000
 -0.175000  0.125000  0.025000     12.000000
 -0.125000  0.125000  0.025000     12.000000
 -0.075000  0.125000  0.025000     12.000000
 -0.025000  0.125000  0.025000     12.000000
  0.175000  0.175000  0.025000      6.000000
  0.225000  0.175000  0.025000     12.000000
  0.275000  0.175000  0.025000     12.000000
[...]
 -0.425000  0.475000  0.375000     12.000000
 -0.375000  0.475000  0.375000     12.000000
 -0.475000 -0.475000  0.375000      6.000000
 -0.425000 -0.475000  0.375000     12.000000
 -0.425000 -0.425000  0.375000      6.000000
  0.425000  0.425000  0.425000      2.000000
  0.475000  0.425000  0.425000      6.000000
 -0.475000  0.425000  0.425000      6.000000
 -0.425000  0.425000  0.425000      6.000000
  0.475000  0.475000  0.425000      6.000000
 -0.475000  0.475000  0.425000     12.000000
 -0.425000  0.475000  0.425000     12.000000
 -0.475000 -0.475000  0.425000      6.000000
  0.475000  0.475000  0.475000      2.000000
 -0.475000  0.475000  0.475000      6.000000

 Following cartesian coordinates:
            Coordinates               Weight
  0.012500  0.012500  0.012500      2.000000
  0.087500 -0.012500 -0.012500      6.000000
  0.162500 -0.037500 -0.037500      6.000000
  0.237500 -0.062500 -0.062500      6.000000
  0.312500 -0.087500 -0.087500      6.000000
  0.387500 -0.112500 -0.112500      6.000000
  0.462500 -0.137500 -0.137500      6.000000
  0.537500 -0.162500 -0.162500      6.000000
  0.612500 -0.187500 -0.187500      6.000000
  0.687500 -0.212500 -0.212500      6.000000
 -0.737500  0.262500  0.262500      6.000000
 -0.662500  0.237500  0.237500      6.000000
 -0.587500  0.212500  0.212500      6.000000
 -0.512500  0.187500  0.187500      6.000000
 -0.437500  0.162500  0.162500      6.000000
 -0.362500  0.137500  0.137500      6.000000
 -0.287500  0.112500  0.112500      6.000000
 -0.212500  0.087500  0.087500      6.000000
 -0.137500  0.062500  0.062500      6.000000
 -0.062500  0.037500  0.037500      6.000000
  0.062500  0.062500 -0.037500      6.000000
  0.137500  0.037500 -0.062500     12.000000
  0.212500  0.012500 -0.087500     12.000000
  0.287500 -0.012500 -0.112500     12.000000
  0.362500 -0.037500 -0.137500     12.000000
  0.437500 -0.062500 -0.162500     12.000000
  0.512500 -0.087500 -0.187500     12.000000
  0.587500 -0.112500 -0.212500     12.000000
  0.662500 -0.137500 -0.237500     12.000000
 -0.762500  0.337500  0.237500     12.000000
 -0.687500  0.312500  0.212500     12.000000
 -0.612500  0.287500  0.187500     12.000000
 -0.537500  0.262500  0.162500     12.000000
 -0.462500  0.237500  0.137500     12.000000
 -0.387500  0.212500  0.112500     12.000000
 -0.312500  0.187500  0.087500     12.000000
 -0.237500  0.162500  0.062500     12.000000
 -0.162500  0.137500  0.037500     12.000000
 -0.087500  0.112500  0.012500     12.000000
  0.112500  0.112500 -0.087500      6.000000
  0.187500  0.087500 -0.112500     12.000000
  0.262500  0.062500 -0.137500     12.000000
  0.337500  0.037500 -0.162500     12.000000
  0.412500  0.012500 -0.187500     12.000000
  0.487500 -0.012500 -0.212500     12.000000
  0.562500 -0.037500 -0.237500     12.000000
  0.637500 -0.062500 -0.262500     12.000000
[...]
 k-point 19 :  -0.0750 0.0250 0.0250  plane waves:     792
 k-point 20 :  -0.0250 0.0250 0.0250  plane waves:     804
 k-point 21 :   0.0750 0.0750 0.0250  plane waves:     804
 k-point 22 :   0.1250 0.0750 0.0250  plane waves:     793
 k-point 23 :   0.1750 0.0750 0.0250  plane waves:     787
 k-point 24 :   0.2250 0.0750 0.0250  plane waves:     790
 k-point 25 :   0.2750 0.0750 0.0250  plane waves:     790
 k-point 26 :   0.3250 0.0750 0.0250  plane waves:     791
 k-point 27 :   0.3750 0.0750 0.0250  plane waves:     796
 k-point 28 :   0.4250 0.0750 0.0250  plane waves:     797
 k-point 29 :   0.4750 0.0750 0.0250  plane waves:     802
 k-point 30 :  -0.4750 0.0750 0.0250  plane waves:     804
 k-point 31 :  -0.4250 0.0750 0.0250  plane waves:     803
 k-point 32 :  -0.3750 0.0750 0.0250  plane waves:     800
 k-point 33 :  -0.3250 0.0750 0.0250  plane waves:     798
 k-point 34 :  -0.2750 0.0750 0.0250  plane waves:     792
 k-point 35 :  -0.2250 0.0750 0.0250  plane waves:     787
 k-point 36 :  -0.1750 0.0750 0.0250  plane waves:     792
 k-point 37 :  -0.1250 0.0750 0.0250  plane waves:     788
 k-point 38 :  -0.0750 0.0750 0.0250  plane waves:     785
 k-point 39 :  -0.0250 0.0750 0.0250  plane waves:     794
 k-point 40 :   0.1250 0.1250 0.0250  plane waves:     785
 k-point 41 :   0.1750 0.1250 0.0250  plane waves:     787
 k-point 42 :   0.2250 0.1250 0.0250  plane waves:     787
 k-point 43 :   0.2750 0.1250 0.0250  plane waves:     790
 k-point 44 :   0.3250 0.1250 0.0250  plane waves:     791
 k-point 45 :   0.3750 0.1250 0.0250  plane waves:     798
 k-point 46 :   0.4250 0.1250 0.0250  plane waves:     801
 k-point 47 :   0.4750 0.1250 0.0250  plane waves:     804
 k-point 48 :  -0.4750 0.1250 0.0250  plane waves:     805
 k-point 49 :  -0.4250 0.1250 0.0250  plane waves:     805
 k-point 50 :  -0.3750 0.1250 0.0250  plane waves:     802
 k-point 51 :  -0.3250 0.1250 0.0250  plane waves:     801
 k-point 52 :  -0.2750 0.1250 0.0250  plane waves:     799
 k-point 53 :  -0.2250 0.1250 0.0250  plane waves:     792
 k-point 54 :  -0.1750 0.1250 0.0250  plane waves:     790
 k-point 55 :  -0.1250 0.1250 0.0250  plane waves:     789
 k-point 56 :  -0.0750 0.1250 0.0250  plane waves:     782
 k-point 57 :  -0.0250 0.1250 0.0250  plane waves:     785
 k-point 58 :   0.1750 0.1750 0.0250  plane waves:     787
 k-point 59 :   0.2250 0.1750 0.0250  plane waves:     790
 k-point 60 :   0.2750 0.1750 0.0250  plane waves:     793
[...]
 k-point 85 :  -0.2750 0.2250 0.0250  plane waves:     803
 k-point 86 :  -0.2250 0.2250 0.0250  plane waves:     801
 k-point 87 :  -0.1750 0.2250 0.0250  plane waves:     794
 k-point 88 :  -0.1250 0.2250 0.0250  plane waves:     793
 k-point 89 :  -0.0750 0.2250 0.0250  plane waves:     791
 k-point 90 :  -0.0250 0.2250 0.0250  plane waves:     787
 k-point 91 :   0.2750 0.2750 0.0250  plane waves:     792
 k-point 92 :   0.3250 0.2750 0.0250  plane waves:     800
 k-point 93 :   0.3750 0.2750 0.0250  plane waves:     797
 k-point 94 :   0.4250 0.2750 0.0250  plane waves:     799
 k-point 95 :   0.4750 0.2750 0.0250  plane waves:     801
 k-point 96 :  -0.4750 0.2750 0.0250  plane waves:     804
 k-point 97 :  -0.4250 0.2750 0.0250  plane waves:     803
 k-point 98 :  -0.3750 0.2750 0.0250  plane waves:     800
 k-point 99 :  -0.3250 0.2750 0.0250  plane waves:     797
 k-point ** :  -0.2750 0.2750 0.0250  plane waves:     800
 k-point ** :  -0.2250 0.2750 0.0250  plane waves:     800
 k-point ** :  -0.1750 0.2750 0.0250  plane waves:     804
 k-point ** :  -0.1250 0.2750 0.0250  plane waves:     797
 k-point ** :  -0.0750 0.2750 0.0250  plane waves:     794
 k-point ** :  -0.0250 0.2750 0.0250  plane waves:     788
 k-point ** :   0.3250 0.3250 0.0250  plane waves:     802
 k-point ** :   0.3750 0.3250 0.0250  plane waves:     802
 k-point ** :   0.4250 0.3250 0.0250  plane waves:     802
 k-point ** :   0.4750 0.3250 0.0250  plane waves:     804
 k-point ** :  -0.4750 0.3250 0.0250  plane waves:     800
 k-point ** :  -0.4250 0.3250 0.0250  plane waves:     800
 k-point ** :  -0.3750 0.3250 0.0250  plane waves:     798
 k-point ** :  -0.3250 0.3250 0.0250  plane waves:     799
 k-point ** :  -0.2750 0.3250 0.0250  plane waves:     800
 k-point ** :  -0.2250 0.3250 0.0250  plane waves:     802
 k-point ** :  -0.1750 0.3250 0.0250  plane waves:     801
 k-point ** :  -0.1250 0.3250 0.0250  plane waves:     799
 k-point ** :  -0.0750 0.3250 0.0250  plane waves:     803
 k-point ** :  -0.0250 0.3250 0.0250  plane waves:     794
 k-point ** :   0.3750 0.3750 0.0250  plane waves:     807
 k-point ** :   0.4250 0.3750 0.0250  plane waves:     810
 k-point ** :   0.4750 0.3750 0.0250  plane waves:     806
 k-point ** :  -0.4750 0.3750 0.0250  plane waves:     802
 k-point ** :  -0.4250 0.3750 0.0250  plane waves:     794
 k-point ** :  -0.3750 0.3750 0.0250  plane waves:     795
 k-point ** :  -0.3250 0.3750 0.0250  plane waves:     803
 k-point ** :  -0.2750 0.3750 0.0250  plane waves:     798
 k-point ** :  -0.2250 0.3750 0.0250  plane waves:     797
 k-point ** :  -0.1750 0.3750 0.0250  plane waves:     800
 k-point ** :  -0.1250 0.3750 0.0250  plane waves:     801
 k-point ** :  -0.0750 0.3750 0.0250  plane waves:     803
 k-point ** :  -0.0250 0.3750 0.0250  plane waves:     795
 k-point ** :   0.4250 0.4250 0.0250  plane waves:     809
 k-point ** :   0.4750 0.4250 0.0250  plane waves:     803
 k-point ** :  -0.4750 0.4250 0.0250  plane waves:     804
 k-point ** :  -0.4250 0.4250 0.0250  plane waves:     799
 k-point ** :  -0.3750 0.4250 0.0250  plane waves:     799
 k-point ** :  -0.3250 0.4250 0.0250  plane waves:     797
 k-point ** :  -0.2750 0.4250 0.0250  plane waves:     798
 k-point ** :  -0.2250 0.4250 0.0250  plane waves:     801
 k-point ** :  -0.1750 0.4250 0.0250  plane waves:     803
 k-point ** :  -0.1250 0.4250 0.0250  plane waves:     802
 k-point ** :  -0.0750 0.4250 0.0250  plane waves:     803
 k-point ** :  -0.0250 0.4250 0.0250  plane waves:     801
 k-point ** :   0.4750 0.4750 0.0250  plane waves:     795
 k-point ** :  -0.4750 0.4750 0.0250  plane waves:     795
 k-point ** :  -0.4250 0.4750 0.0250  plane waves:     800
 k-point ** :  -0.3750 0.4750 0.0250  plane waves:     802
 k-point ** :  -0.3250 0.4750 0.0250  plane waves:     796
 k-point ** :  -0.2750 0.4750 0.0250  plane waves:     799
 k-point ** :  -0.2250 0.4750 0.0250  plane waves:     802
 k-point ** :  -0.1750 0.4750 0.0250  plane waves:     802
 k-point ** :  -0.1250 0.4750 0.0250  plane waves:     805
 k-point ** :  -0.0750 0.4750 0.0250  plane waves:     804
 k-point ** :  -0.0250 0.4750 0.0250  plane waves:     804
 k-point ** :  -0.4750-0.4750 0.0250  plane waves:     785
 k-point ** :  -0.4250-0.4750 0.0250  plane waves:     797
 k-point ** :  -0.3750-0.4750 0.0250  plane waves:     803
 k-point ** :  -0.3250-0.4750 0.0250  plane waves:     805
[...]
 k-point ** :  -0.4250 0.4750 0.3750  plane waves:     790
 k-point ** :  -0.3750 0.4750 0.3750  plane waves:     796
 k-point ** :  -0.4750-0.4750 0.3750  plane waves:     789
 k-point ** :  -0.4250-0.4750 0.3750  plane waves:     793
 k-point ** :  -0.4250-0.4250 0.3750  plane waves:     798
 k-point ** :   0.4250 0.4250 0.4250  plane waves:     781
 k-point ** :   0.4750 0.4250 0.4250  plane waves:     789
 k-point ** :  -0.4750 0.4250 0.4250  plane waves:     784
 k-point ** :  -0.4250 0.4250 0.4250  plane waves:     790
 k-point ** :   0.4750 0.4750 0.4250  plane waves:     782
 k-point ** :  -0.4750 0.4750 0.4250  plane waves:     784
 k-point ** :  -0.4250 0.4750 0.4250  plane waves:     785
 k-point ** :  -0.4750-0.4750 0.4250  plane waves:     780
 k-point ** :   0.4750 0.4750 0.4750  plane waves:     787
 k-point ** :  -0.4750 0.4750 0.4750  plane waves:     781

 maximum and minimum number of plane-waves per node :       820      780

 maximum number of plane-waves:       820
 maximum index in each direction:
   IXMAX=    9   IYMAX=    9   IZMAX=    8
   IXMIN=   -9   IYMIN=   -9   IZMIN=   -9

 serial   3D FFT for wavefunctions
 parallel 3D FFT for charge:
    minimum data exchange during FFTs selected (reduces bandwidth)

 initial charge density was supplied:
 number of electron      26.0000001 magnetization      -0.0000000
 keeping initial charge density in first step

 Maximum index for augmentation-charges        17719 (set IRDMAX)

 First call to EWALD:  gamma=   0.502
 Maximum number of real-space cells 3x 3x 3
 Maximum number of reciprocal cells 4x 4x 4

--------------------------------------- Iteration      1(   1)  ---------------------------------------

 BZINTS: Fermi energy: 19.567628; 26.000000 electrons
         Band energy: 209.985436;  BLOECHL correction: -0.240230

 eigenvalue-minimisations  : 53144
 total energy-change (2. order) : 0.2197692E+03  (-0.1047449E+04)
 number of electron      26.0000001 magnetization      -0.0000000
 augmentation part       26.0000001 magnetization      -0.0000000

 Free energy of the ion-electron system (eV)
  alpha Z        PSCENC =       119.80218577
  Ewald energy   TEWEN  =     -1558.68419992
  -Hartree energ DENC   =      -348.34403818
  -exchange      EXHF   =         0.00000000
  -V(xc)+E(xc)   XCENC  =        41.24596007
  PAW double counting   =      1235.83202134    -1181.37920284
  entropy T*S    EENTRO =         0.00000000
  eigenvalues    EBANDS =       209.98543588
  atomic energy  EATOM  =      1701.31100873
  Solvation  Ediel_sol  =         0.00000000
  free energy    TOTEN  =       219.76917083 eV

  energy without entropy =      219.76917083  energy(sigma->0) =      219.76917083

[...]

 eigenvalue-minimisations  : 52777
 total energy-change (2. order) :-0.2087820E+03  (-0.2059493E+03)
 number of electron      26.0000001 magnetization      -0.0000000
 augmentation part       26.0000001 magnetization      -0.0000000

[...]

--------------------------------------- Iteration      1(   7)  ---------------------------------------

[...]

 eigenvalue-minimisations  : 63528
 total energy-change (2. order) :-0.6578466E-05  (-0.6577690E-05)
 number of electron      26.0000001 magnetization      -0.0000000
 augmentation part       26.0000001 magnetization      -0.0000000

 Free energy of the ion-electron system (eV)
  alpha Z        PSCENC =       119.80218577
  Ewald energy   TEWEN  =     -1558.68419992
  -Hartree energ DENC   =      -348.34403818
  -exchange      EXHF   =         0.00000000
  -V(xc)+E(xc)   XCENC  =        41.24596007
  PAW double counting   =      1235.83202134    -1181.37920284
  entropy T*S    EENTRO =         0.00000000
  eigenvalues    EBANDS =       -39.29940947
  atomic energy  EATOM  =      1701.31100873
  Solvation  Ediel_sol  =         0.00000000
  free energy    TOTEN  =       -29.51567451 eV

  energy without entropy =      -29.51567451  energy(sigma->0) =      -29.51567451

 average (electrostatic) potential at core
  the test charge radii are     1.0210  0.7215
  (the norm of the test charge is              1.0000)
       1 -44.3462       2 -44.3462       3 -70.8296       4 -70.8296

 E-fermi :   3.8680     XC(G=0): -11.5477     alpha+bet :-11.1101

 spin component 1

 k-point     1 :       0.0250    0.0250    0.0250
  band No.  band energies     occupation
      1     -13.8788      1.00000
      2     -12.8894      1.00000
      3      -2.3611      1.00000
      4      -1.2485      1.00000
      5      -1.2485      1.00000
      6      -0.1045      1.00000
      7      -0.1045      1.00000
      8       0.7577      1.00000
      9       2.5947      1.00000
     10       2.5988      1.00000
     11       2.5988      1.00000
     12       3.2969      1.00000
     13       3.2969      1.00000
     14       6.1245      0.00000
     15       9.7663      0.00000
     16       9.9684      0.00000
     17       9.9685      0.00000

[...]

 spin component 2

[...]

 k-point   770 :      -0.4750    0.4750    0.4750
  band No.  band energies     occupation
      1     -13.4297      1.00000
      2     -13.3760      1.00000
      3      -1.5039      1.00000
      4      -1.2379      1.00000
      5      -1.1640      1.00000
      6      -0.1221      1.00000
      7      -0.1065      1.00000
      8       0.3985      1.00000
      9       1.2300      1.00000
     10       2.0657      1.00000
     11       2.1508      1.00000
     12       3.7092      1.00000
     13       3.7986      1.00000
     14       8.5220      0.00000
     15       8.6683      0.00000
     16       9.7139      0.00000
     17       9.9274      0.00000

 soft charge-density along one line, spin component           1
         0         1         2         3         4         5         6         7         8         9
 total charge-density along one line

 soft charge-density along one line, spin component           2
         0         1         2         3         4         5         6         7         8         9
 total charge-density along one line

------------------------ aborting loop because EDIFF is reached ----------------------------------------

 total charge

# of ion       s       p       d       tot
    1        0.211   0.238   4.996   5.446
    2        0.211   0.238   4.996   5.446
    3        1.577   3.483   0.000   5.061
    4        1.577   3.483   0.000   5.061
tot          3.578   7.443   9.992  21.013

 magnetization (x)

[...]

  FORCE on cell =-STRESS in cart. coord.  units (eV):
  Direction    XX          YY          ZZ          XY          YZ          ZX
  Alpha Z   119.80219   119.80219   119.80219
  Ewald    -519.56220  -519.56220  -519.56220    -0.00000    -0.00000    -0.00000
  Hartree   116.09801   116.09801   116.09801    -0.00680    -0.00680    -0.00680
  E(xc)    -131.09990  -131.09990  -131.09990     0.01079     0.01079     0.01079
  Local      34.40558    34.40558    34.40558     0.06855     0.06855     0.06855
  n-local   -94.41757   -96.66911   -95.00558     0.17245     0.18148    -0.51045
  augment    76.78703    76.78703    76.78703    -0.01205    -0.01205    -0.01205
  Kinetic   396.76392   402.01886   398.67881    -1.21496    -1.21225     1.87093
  Fock        0.00000     0.00000     0.00000     0.00000     0.00000     0.00000
  Total       0.22048     0.22048     0.22048    -0.17768    -0.17768    -0.17768
  in kB       8.03913     8.03913     8.03913    -6.47837    -6.47837    -6.47837

 VOLUME and BASIS-vectors are now :
  energy-cutoff  :      400.00
  volume of cell :       43.94
      direct lattice vectors                 reciprocal lattice vectors
     4.446000000  2.223000000  2.223000000     0.337381916 -0.112460639 -0.112460639
     2.223000000  4.446000000  2.223000000    -0.112460639  0.337381916 -0.112460639
     2.223000000  2.223000000  4.446000000    -0.112460639 -0.112460639  0.337381916

  length of vectors
     5.445215698  5.445215698  5.445215698     0.372989743  0.372989743  0.372989743

 FORCES acting on ions
    electron-ion (+dipol)            ewald-force                    non-local-force                 convergence-correction
   0.230E-13 0.105E-12 -.326E-12   -.142E-13 -.142E-13 -.142E-13   -.212E-21 -.106E-20 0.847E-21   0.753E-13 0.124E-12 0.841E-13
   -.865E-14 0.788E-12 0.759E-12   0.142E-13 0.142E-13 0.142E-13   0.424E-21 -.212E-21 0.635E-21   -.217E-12 -.230E-12 -.252E-12
   -.693E-13 0.477E-12 0.472E-12   -.929E-14 -.115E-13 -.107E-13   0.424E-21 0.371E-21 -.106E-21   -.108E-12 -.122E-12 -.987E-13
   0.154E-11 0.753E-13 0.706E-13   0.118E-13 0.109E-13 0.115E-13   -.159E-21 0.159E-21 0.318E-21   0.384E-13 0.675E-13 0.634E-13
   0.149E-11 0.145E-11 0.976E-12   0.246E-14 -.692E-15 0.721E-15   0.476E-21 -.741E-21 0.169E-20   -.211E-12 -.160E-12 -.203E-12

 POSITION                                       TOTAL-FORCE (eV/Angst)
      0.00000      0.00000      0.00000         0.000000      0.000000      0.000000
      4.44600      4.44600      4.44600         0.000000      0.000000     -0.000000
      2.22300      2.22300      2.22300        -0.000000      0.000000     -0.000000
      6.66900      6.66900      6.66900        -0.000000     -0.000000     -0.000000
    total drift:                                0.000000      0.000000      0.000000

  FREE ENERGIE OF THE ION-ELECTRON SYSTEM (eV)
  free  energy   TOTEN  =       -29.51567451 eV

  energy  without entropy=      -29.51567451  energy(sigma->0) =      -29.51567451

 total charge

[...]

 magnetization (x)

# of ion       s       p       d       tot
    1        0.019   0.019   4.673   4.711
    2       -0.019  -0.019  -4.673  -4.711
    3        0.000   0.000   0.000   0.000
    4       -0.000  -0.000   0.000  -0.000
tot         -0.000  -0.000   0.000  -0.000

 BZINTS: Fermi energy:  3.868026; 26.000000 electrons
         Band energy: -39.299409;  BLOECHL correction:  0.000000