 vasp.5.4.4.18Apr17-6-g9f103f2a35 (build May 20 2018 16:52:39) complex

 executed on             LinuxIFC date 2022.10.30  23:24:12

 INCAR:
 POTCAR:    PAW Fe
 POTCAR:    PAW Fe
   VRHFIN =Fe:  d7 s1

   TITEL  = PAW Fe
   POMASS =   55.847; ZVAL   =    8.000    mass and valenz
   ENMAX  =  267.969; ENMIN  =  200.977 eV
   QCUT   =   -4.438; QGAM   =    8.876    optimization parameters

   Description
     l     E      TYP  RCUT    TYP  RCUT
     2   .000     23  2.300
     2   .000     23  2.300
     0   .000     23  2.300
     0   .000     23  2.300
     1  -.200     23  2.300
     1   .000     23  2.300
     3   .000      7   .000

  PAW Fe                                :

 POSCAR: Fe bulk bcc
  positions in direct lattice
 exchange correlation table for  LEXCH =        2
   RHO(1)=    0.500       N(1)  =     2000
   RHO(2)=  100.500       N(2)  =     4000

 ion  position               nearest neighbor table
   1  0.000  0.000  0.000-

  LATTYP: Found a body centered cubic cell.
 ALAT       =     2.8000000000

  Lattice vectors:

 A1 = (  -1.4000000000,   1.4000000000,   1.4000000000)
 A2 = (   1.4000000000,  -1.4000000000,   1.4000000000)
 A3 = (   1.4000000000,   1.4000000000,  -1.4000000000)

Analysis of symmetry for initial positions (statically):
 Subroutine PRICEL returns:
 Original cell was already a primitive cell.

 Routine SETGRP: Setting up the symmetry group for a
 body centered cubic supercell.

 Subroutine GETGRP returns: Found 48 space group operations
 (whereof 48 operations were pure point group operations)
 out of a pool of 48 trial point group operations.

The static configuration has the point symmetry O_h .

Analysis of symmetry for dynamics (positions and initial velocities):
 Subroutine PRICEL returns:
 Original cell was already a primitive cell.

[...]

The dynamic configuration has the point symmetry O_h .

Analysis of structural, dynamic, and magnetic symmetry:
 Subroutine PRICEL returns:
 Original cell was already a primitive cell.

 Routine SETGRP: Setting up the symmetry group for a
 body centered cubic supercell.

 Subroutine GETGRP returns: Found 48 space group operations
 (whereof 48 operations were pure point group operations)
 out of a pool of 48 trial point group operations.

The magnetic configuration has the point symmetry O_h .

 Subroutine INISYM returns: Found 48 space group operations
 (whereof 48 operations are pure point group operations),
 and found     1 'primitive' translations

 KPOINTS: 30x30x30

Automatic generation of k-mesh.
Space group operators:
 irot       det(A)        alpha          n_x          n_y          n_z        tau_x        tau_y        tau_z
    1     1.000000     0.000000     1.000000     0.000000     0.000000     0.000000     0.000000     0.000000
    2    -1.000000     0.000000     1.000000     0.000000     0.000000     0.000000     0.000000     0.000000
    3     1.000000   120.000000    -0.577350    -0.577350    -0.577350     0.000000     0.000000     0.000000
    4    -1.000000   120.000000    -0.577350    -0.577350    -0.577350     0.000000     0.000000     0.000000
    5     1.000000   120.000000     0.577350     0.577350     0.577350     0.000000     0.000000     0.000000
    6    -1.000000   120.000000     0.577350     0.577350     0.577350     0.000000     0.000000     0.000000
    7     1.000000    90.000000     0.000000     0.000000    -1.000000     0.000000     0.000000     0.000000
    8    -1.000000    90.000000     0.000000     0.000000    -1.000000     0.000000     0.000000     0.000000
    9     1.000000   180.000000     0.000000     0.707107     0.707107     0.000000     0.000000     0.000000
   10    -1.000000   180.000000     0.000000     0.707107     0.707107     0.000000     0.000000     0.000000
   11     1.000000    90.000000     0.000000     1.000000     0.000000     0.000000     0.000000     0.000000
   12    -1.000000    90.000000     0.000000     1.000000     0.000000     0.000000     0.000000     0.000000
   13     1.000000   180.000000     0.000000     0.000000     1.000000     0.000000     0.000000     0.000000
   14    -1.000000   180.000000     0.000000     0.000000     1.000000     0.000000     0.000000     0.000000
   15     1.000000   120.000000    -0.577350     0.577350     0.577350     0.000000     0.000000     0.000000
   16    -1.000000   120.000000    -0.577350     0.577350     0.577350     0.000000     0.000000     0.000000
   17     1.000000   120.000000    -0.577350     0.577350    -0.577350     0.000000     0.000000     0.000000
   18    -1.000000   120.000000    -0.577350     0.577350    -0.577350     0.000000     0.000000     0.000000
   19     1.000000    90.000000     0.000000     0.000000     1.000000     0.000000     0.000000     0.000000
   20    -1.000000    90.000000     0.000000     0.000000     1.000000     0.000000     0.000000     0.000000
   21     1.000000    90.000000    -1.000000     0.000000     0.000000     0.000000     0.000000     0.000000
   22    -1.000000    90.000000    -1.000000     0.000000     0.000000     0.000000     0.000000     0.000000
   23     1.000000   180.000000     0.707107     0.000000     0.707107     0.000000     0.000000     0.000000
   24    -1.000000   180.000000     0.707107     0.000000     0.707107     0.000000     0.000000     0.000000
   25     1.000000   120.000000     0.577350    -0.577350     0.577350     0.000000     0.000000     0.000000
   26    -1.000000   120.000000     0.577350    -0.577350     0.577350     0.000000     0.000000     0.000000
   27     1.000000   120.000000    -0.577350    -0.577350     0.577350     0.000000     0.000000     0.000000
   28    -1.000000   120.000000    -0.577350    -0.577350     0.577350     0.000000     0.000000     0.000000
   29     1.000000   180.000000     1.000000     0.000000     0.000000     0.000000     0.000000     0.000000
   30    -1.000000   180.000000     1.000000     0.000000     0.000000     0.000000     0.000000     0.000000
   31     1.000000    90.000000     0.000000    -1.000000     0.000000     0.000000     0.000000     0.000000
   32    -1.000000    90.000000     0.000000    -1.000000     0.000000     0.000000     0.000000     0.000000
   33     1.000000   180.000000     0.707107     0.707107     0.000000     0.000000     0.000000     0.000000
   34    -1.000000   180.000000     0.707107     0.707107     0.000000     0.000000     0.000000     0.000000
   35     1.000000    90.000000     1.000000     0.000000     0.000000     0.000000     0.000000     0.000000
   36    -1.000000    90.000000     1.000000     0.000000     0.000000     0.000000     0.000000     0.000000
   37     1.000000   120.000000     0.577350    -0.577350    -0.577350     0.000000     0.000000     0.000000
   38    -1.000000   120.000000     0.577350    -0.577350    -0.577350     0.000000     0.000000     0.000000
   39     1.000000   180.000000     0.000000     1.000000     0.000000     0.000000     0.000000     0.000000
   40    -1.000000   180.000000     0.000000     1.000000     0.000000     0.000000     0.000000     0.000000
   41     1.000000   120.000000     0.577350     0.577350    -0.577350     0.000000     0.000000     0.000000
   42    -1.000000   120.000000     0.577350     0.577350    -0.577350     0.000000     0.000000     0.000000
   43     1.000000   180.000000     0.000000    -0.707107     0.707107     0.000000     0.000000     0.000000
   44    -1.000000   180.000000     0.000000    -0.707107     0.707107     0.000000     0.000000     0.000000
   45     1.000000   180.000000     0.707107    -0.707107     0.000000     0.000000     0.000000     0.000000
   46    -1.000000   180.000000     0.707107    -0.707107     0.000000     0.000000     0.000000     0.000000
   47     1.000000   180.000000     0.707107     0.000000    -0.707107     0.000000     0.000000     0.000000
   48    -1.000000   180.000000     0.707107     0.000000    -0.707107     0.000000     0.000000     0.000000

 Subroutine IBZKPT returns following result:

 Found    744 irreducible k-points:

 Following reciprocal coordinates:
            Coordinates               Weight
  0.016667  0.016667  0.016667      8.000000
  0.050000  0.016667  0.016667     24.000000
  0.083333  0.016667  0.016667     24.000000
  0.116667  0.016667  0.016667     24.000000
  0.150000  0.016667  0.016667     24.000000
  0.183333  0.016667  0.016667     24.000000
  0.216667  0.016667  0.016667     24.000000
  0.250000  0.016667  0.016667     24.000000
  0.283333  0.016667  0.016667     24.000000
  0.316667  0.016667  0.016667     24.000000
  0.350000  0.016667  0.016667     24.000000
  0.383333  0.016667  0.016667     24.000000
  0.416667  0.016667  0.016667     24.000000
  0.450000  0.016667  0.016667     24.000000
  0.483333  0.016667  0.016667     12.000000
 -0.016667  0.016667  0.016667      6.000000
  0.050000  0.050000  0.016667     24.000000
  0.083333  0.050000  0.016667     48.000000
  0.116667  0.050000  0.016667     48.000000
  0.150000  0.050000  0.016667     48.000000
  0.183333  0.050000  0.016667     48.000000
  0.216667  0.050000  0.016667     48.000000
  0.250000  0.050000  0.016667     48.000000
  0.283333  0.050000  0.016667     48.000000
  0.316667  0.050000  0.016667     48.000000
  0.350000  0.050000  0.016667     48.000000
  0.383333  0.050000  0.016667     48.000000
  0.416667  0.050000  0.016667     48.000000
  0.450000  0.050000  0.016667     48.000000
 -0.050000  0.050000  0.016667     24.000000
  0.083333  0.083333  0.016667     24.000000
  0.116667  0.083333  0.016667     48.000000
  0.150000  0.083333  0.016667     48.000000
  0.183333  0.083333  0.016667     48.000000
  0.216667  0.083333  0.016667     48.000000
  0.250000  0.083333  0.016667     48.000000
  0.283333  0.083333  0.016667     48.000000
  0.316667  0.083333  0.016667     48.000000
  0.350000  0.083333  0.016667     48.000000
  0.383333  0.083333  0.016667     48.000000
  0.416667  0.083333  0.016667     48.000000
  0.450000  0.083333  0.016667     24.000000
 -0.083333  0.083333  0.016667     24.000000
 -0.050000  0.083333  0.016667     24.000000
  0.116667  0.116667  0.016667     24.000000
  0.150000  0.116667  0.016667     48.000000
  0.183333  0.116667  0.016667     48.000000
  0.216667  0.116667  0.016667     48.000000
  0.250000  0.116667  0.016667     48.000000
  0.283333  0.116667  0.016667     48.000000
  0.316667  0.116667  0.016667     48.000000
  0.350000  0.116667  0.016667     48.000000
  0.383333  0.116667  0.016667     48.000000
  0.416667  0.116667  0.016667     48.000000
 -0.116667  0.116667  0.016667     24.000000
 -0.083333  0.116667  0.016667     48.000000
  0.150000  0.150000  0.016667     24.000000
  0.183333  0.150000  0.016667     48.000000
  0.216667  0.150000  0.016667     48.000000
  0.250000  0.150000  0.016667     48.000000
[...]
 -0.450000  0.450000  0.383333     24.000000
 -0.416667  0.450000  0.383333     24.000000
 -0.483333  0.483333  0.383333     24.000000
 -0.450000  0.483333  0.383333     48.000000
 -0.483333 -0.483333  0.383333     24.000000
 -0.450000 -0.483333  0.383333     24.000000
 -0.416667  0.416667  0.416667      6.000000
 -0.450000  0.450000  0.416667     24.000000
[...]
 k-point  9 :   0.2833 0.0167 0.0167  plane waves:     111
 k-point 10 :   0.3167 0.0167 0.0167  plane waves:     111
 k-point 11 :   0.3500 0.0167 0.0167  plane waves:     112
 k-point 12 :   0.3833 0.0167 0.0167  plane waves:     112
 k-point 13 :   0.4167 0.0167 0.0167  plane waves:     112
 k-point 14 :   0.4500 0.0167 0.0167  plane waves:     114
 k-point 15 :   0.4833 0.0167 0.0167  plane waves:     114
 k-point 16 :  -0.0167 0.0167 0.0167  plane waves:     111
 k-point 17 :   0.0500 0.0500 0.0167  plane waves:     111
 k-point 18 :   0.0833 0.0500 0.0167  plane waves:     111
 k-point 19 :   0.1167 0.0500 0.0167  plane waves:     109
 k-point 20 :   0.1500 0.0500 0.0167  plane waves:     109
 k-point 21 :   0.1833 0.0500 0.0167  plane waves:     109
 k-point 22 :   0.2167 0.0500 0.0167  plane waves:     109
 k-point 23 :   0.2500 0.0500 0.0167  plane waves:     109
 k-point 24 :   0.2833 0.0500 0.0167  plane waves:     110
 k-point 25 :   0.3167 0.0500 0.0167  plane waves:     110
 k-point 26 :   0.3500 0.0500 0.0167  plane waves:     111
 k-point 27 :   0.3833 0.0500 0.0167  plane waves:     112
 k-point 28 :   0.4167 0.0500 0.0167  plane waves:     113
 k-point 29 :   0.4500 0.0500 0.0167  plane waves:     113
 k-point 30 :  -0.0500 0.0500 0.0167  plane waves:     109
 k-point 31 :   0.0833 0.0833 0.0167  plane waves:     111
 k-point 32 :   0.1167 0.0833 0.0167  plane waves:     109
 k-point 33 :   0.1500 0.0833 0.0167  plane waves:     109
 k-point 34 :   0.1833 0.0833 0.0167  plane waves:     108
 k-point 35 :   0.2167 0.0833 0.0167  plane waves:     109
 k-point 36 :   0.2500 0.0833 0.0167  plane waves:     107
 k-point 37 :   0.2833 0.0833 0.0167  plane waves:     108
 k-point 38 :   0.3167 0.0833 0.0167  plane waves:     110
 k-point 39 :   0.3500 0.0833 0.0167  plane waves:     111
 k-point 40 :   0.3833 0.0833 0.0167  plane waves:     110
 k-point 41 :   0.4167 0.0833 0.0167  plane waves:     111
 k-point 42 :   0.4500 0.0833 0.0167  plane waves:     112
 k-point 43 :  -0.0833 0.0833 0.0167  plane waves:     109
 k-point 44 :  -0.0500 0.0833 0.0167  plane waves:     111
 k-point 45 :   0.1167 0.1167 0.0167  plane waves:     110
 k-point 46 :   0.1500 0.1167 0.0167  plane waves:     108
 k-point 47 :   0.1833 0.1167 0.0167  plane waves:     109
 k-point 48 :   0.2167 0.1167 0.0167  plane waves:     108
 k-point 49 :   0.2500 0.1167 0.0167  plane waves:     108
 k-point 50 :   0.2833 0.1167 0.0167  plane waves:     109
 k-point 51 :   0.3167 0.1167 0.0167  plane waves:     110
 k-point 52 :   0.3500 0.1167 0.0167  plane waves:     110
 k-point 53 :   0.3833 0.1167 0.0167  plane waves:     111
 k-point 54 :   0.4167 0.1167 0.0167  plane waves:     110
 k-point 55 :  -0.1167 0.1167 0.0167  plane waves:     111
 k-point 56 :  -0.0833 0.1167 0.0167  plane waves:     110
 k-point 57 :   0.1500 0.1500 0.0167  plane waves:     109
 k-point 58 :   0.1833 0.1500 0.0167  plane waves:     108
 k-point 59 :   0.2167 0.1500 0.0167  plane waves:     109
 k-point 60 :   0.2500 0.1500 0.0167  plane waves:     108
[...]
 k-point 85 :  -0.2167 0.2167 0.0167  plane waves:     111
 k-point 86 :  -0.1833 0.2167 0.0167  plane waves:     109
 k-point 87 :  -0.1500 0.2167 0.0167  plane waves:     109
 k-point 88 :  -0.1167 0.2167 0.0167  plane waves:     111
 k-point 89 :   0.2500 0.2500 0.0167  plane waves:     110
 k-point 90 :   0.2833 0.2500 0.0167  plane waves:     107
 k-point 91 :   0.3167 0.2500 0.0167  plane waves:     109
 k-point 92 :   0.3500 0.2500 0.0167  plane waves:     111
 k-point 93 :  -0.2500 0.2500 0.0167  plane waves:     109
 k-point 94 :  -0.2167 0.2500 0.0167  plane waves:     108
 k-point 95 :  -0.1833 0.2500 0.0167  plane waves:     109
 k-point 96 :  -0.1500 0.2500 0.0167  plane waves:     110
 k-point 97 :   0.2833 0.2833 0.0167  plane waves:     106
 k-point 98 :   0.3167 0.2833 0.0167  plane waves:     110
 k-point 99 :   0.3500 0.2833 0.0167  plane waves:     110
 k-point ** :  -0.2833 0.2833 0.0167  plane waves:     110
 k-point ** :  -0.2500 0.2833 0.0167  plane waves:     108
 k-point ** :  -0.2167 0.2833 0.0167  plane waves:     109
 k-point ** :  -0.1833 0.2833 0.0167  plane waves:     109
 k-point ** :  -0.1500 0.2833 0.0167  plane waves:     109
 k-point ** :   0.3167 0.3167 0.0167  plane waves:     110
 k-point ** :  -0.3167 0.3167 0.0167  plane waves:     111
 k-point ** :  -0.2833 0.3167 0.0167  plane waves:     108
 k-point ** :  -0.2500 0.3167 0.0167  plane waves:     107
 k-point ** :  -0.2167 0.3167 0.0167  plane waves:     109
 k-point ** :  -0.1833 0.3167 0.0167  plane waves:     110
 k-point ** :  -0.3500 0.3500 0.0167  plane waves:     111
 k-point ** :  -0.3167 0.3500 0.0167  plane waves:     111
 k-point ** :  -0.2833 0.3500 0.0167  plane waves:     108
 k-point ** :  -0.2500 0.3500 0.0167  plane waves:     109
 k-point ** :  -0.2167 0.3500 0.0167  plane waves:     109
 k-point ** :  -0.1833 0.3500 0.0167  plane waves:     109
 k-point ** :  -0.3833 0.3833 0.0167  plane waves:     112
 k-point ** :  -0.3500 0.3833 0.0167  plane waves:     112
 k-point ** :  -0.3167 0.3833 0.0167  plane waves:     109
 k-point ** :  -0.2833 0.3833 0.0167  plane waves:     108
 k-point ** :  -0.2500 0.3833 0.0167  plane waves:     108
 k-point ** :  -0.2167 0.3833 0.0167  plane waves:     109
 k-point ** :  -0.4167 0.4167 0.0167  plane waves:     112
 k-point ** :  -0.3833 0.4167 0.0167  plane waves:     112
 k-point ** :  -0.3500 0.4167 0.0167  plane waves:     110
 k-point ** :  -0.3167 0.4167 0.0167  plane waves:     109
 k-point ** :  -0.2833 0.4167 0.0167  plane waves:     108
 k-point ** :  -0.2500 0.4167 0.0167  plane waves:     107
 k-point ** :  -0.2167 0.4167 0.0167  plane waves:     107
 k-point ** :  -0.4500 0.4500 0.0167  plane waves:     113
 k-point ** :  -0.4167 0.4500 0.0167  plane waves:     113
 k-point ** :  -0.3833 0.4500 0.0167  plane waves:     111
 k-point ** :  -0.3500 0.4500 0.0167  plane waves:     110
 k-point ** :  -0.3167 0.4500 0.0167  plane waves:     110
 k-point ** :  -0.2833 0.4500 0.0167  plane waves:     109
 k-point ** :  -0.2500 0.4500 0.0167  plane waves:     107
 k-point ** :  -0.4833 0.4833 0.0167  plane waves:     114
 k-point ** :  -0.4500 0.4833 0.0167  plane waves:     113
 k-point ** :  -0.4167 0.4833 0.0167  plane waves:     111
 k-point ** :  -0.3833 0.4833 0.0167  plane waves:     110
 k-point ** :  -0.3500 0.4833 0.0167  plane waves:     110
 k-point ** :  -0.3167 0.4833 0.0167  plane waves:     108
 k-point ** :  -0.2833 0.4833 0.0167  plane waves:     108
 k-point ** :  -0.2500 0.4833 0.0167  plane waves:     110
 k-point ** :  -0.4833-0.4833 0.0167  plane waves:     114
 k-point ** :  -0.4500-0.4833 0.0167  plane waves:     111
 k-point ** :  -0.4167-0.4833 0.0167  plane waves:     110
 k-point ** :  -0.3833-0.4833 0.0167  plane waves:     110
 k-point ** :  -0.3500-0.4833 0.0167  plane waves:     111
 k-point ** :  -0.3167-0.4833 0.0167  plane waves:     107
 k-point ** :  -0.2833-0.4833 0.0167  plane waves:     107
 k-point ** :  -0.4500-0.4500 0.0167  plane waves:     109
 k-point ** :  -0.4167-0.4500 0.0167  plane waves:     109
 k-point ** :  -0.3833-0.4500 0.0167  plane waves:     109
 k-point ** :  -0.3500-0.4500 0.0167  plane waves:     109
 k-point ** :  -0.3167-0.4500 0.0167  plane waves:     108
 k-point ** :  -0.2833-0.4500 0.0167  plane waves:     110
 k-point ** :  -0.4167-0.4167 0.0167  plane waves:     109
 k-point ** :  -0.3833-0.4167 0.0167  plane waves:     109
[...]
 k-point ** :  -0.4500 0.4500 0.3833  plane waves:     112
 k-point ** :  -0.4167 0.4500 0.3833  plane waves:     114
 k-point ** :  -0.4833 0.4833 0.3833  plane waves:     114
 k-point ** :  -0.4500 0.4833 0.3833  plane waves:     115
 k-point ** :  -0.4833-0.4833 0.3833  plane waves:     114
 k-point ** :  -0.4500-0.4833 0.3833  plane waves:     116
 k-point ** :  -0.4167 0.4167 0.4167  plane waves:     112
 k-point ** :  -0.4500 0.4500 0.4167  plane waves:     116
 k-point ** :  -0.4833 0.4833 0.4167  plane waves:     116
 k-point ** :  -0.4500 0.4833 0.4167  plane waves:     116
 k-point ** :  -0.4833-0.4833 0.4167  plane waves:     116
 k-point ** :  -0.4500 0.4500 0.4500  plane waves:     116
 k-point ** :  -0.4833 0.4833 0.4500  plane waves:     116
 k-point ** :  -0.4833-0.4833 0.4500  plane waves:     116
 k-point ** :  -0.4833 0.4833 0.4833  plane waves:     116

 maximum and minimum number of plane-waves per node :       116      104

 maximum number of plane-waves:       116
 maximum index in each direction:
   IXMAX=    3   IYMAX=    3   IZMAX=    3
   IXMIN=   -3   IYMIN=   -3   IZMIN=   -3

 serial   3D FFT for wavefunctions
 parallel 3D FFT for charge:
    minimum data exchange during FFTs selected (reduces bandwidth)

 Broyden mixing: mesh for mixing (old mesh)
   NGX =  7   NGY =  7   NGZ =  7
  (NGX  = 20   NGY  = 20   NGZ  = 20)
  gives a total of    343 points

 initial charge density was supplied:
 charge density of overlapping atoms calculated
 number of electron       8.0000000 magnetization       3.0000000
 keeping initial charge density in first step

 Maximum index for augmentation-charges         3143 (set IRDMAX)

 First call to EWALD:  gamma=   0.798
 Maximum number of real-space cells 3x 3x 3
 Maximum number of reciprocal cells 3x 3x 3

--------------------------------------- Iteration      1(   1)  ---------------------------------------

 eigenvalue-minimisations  : 32638
 total energy-change (2. order) : 0.7232310E+01  (-0.2758504E+03)
 number of electron       8.0000000 magnetization       3.0000000
 augmentation part        8.0000000 magnetization       3.0000000

 Free energy of the ion-electron system (eV)
  alpha Z        PSCENC =        61.01372595
  Ewald energy   TEWEN  =      -598.90499562
  -Hartree energ DENC   =      -108.43137143
  -exchange      EXHF   =         0.00000000
  -V(xc)+E(xc)   XCENC  =         5.67988529
  PAW double counting   =       478.07446770     -487.43411278
  entropy T*S    EENTRO =         0.00002350
  eigenvalues    EBANDS =        59.90433490
  atomic energy  EATOM  =       597.33035224
  Solvation  Ediel_sol  =         0.00000000
  free energy    TOTEN  =         7.23230975 eV

  energy without entropy =        7.23228625  energy(sigma->0) =        7.23230192

[...]

 eigenvalue-minimisations  : 30306
 total energy-change (2. order) :-0.1730198E+02  (-0.1595185E+02)
 number of electron       8.0000000 magnetization       3.0000000
 augmentation part        8.0000000 magnetization       3.0000000

[...]

 Broyden mixing:
  rms(total) = 0.87668E+00    rms(broyden)= 0.87600E+00
  rms(prec ) = 0.33658E+01
  weight for this iteration     100.00

[...]

 eigenvalues of (default mixing * dielectric matrix)
  average eigenvalue GAMMA=   0.7376
  0.7376

[...]

 eigenvalue-minimisations  : 18280
 total energy-change (2. order) :-0.1131737E-05  (-0.6439034E-07)
 number of electron       8.0000157 magnetization       2.0650348
 augmentation part        4.1280637 magnetization       1.6560598

[...]

 Broyden mixing:
  rms(total) = 0.26021E-03    rms(broyden)= 0.26019E-03
  rms(prec ) = 0.87404E-03
  weight for this iteration     100.00

 eigenvalues of (default mixing * dielectric matrix)
  average eigenvalue GAMMA=   1.2099
  2.4967  2.4967  1.2408  0.8405  0.6763  0.6763  0.6261  0.6261

[...]

--------------------------------------- Iteration      1(  14)  ---------------------------------------

 eigenvalue-minimisations  : 15108
 total energy-change (2. order) : 0.1576427E-07  (-0.4992230E-07)
 number of electron       8.0000157 magnetization       2.0649476
 augmentation part        4.1279424 magnetization       1.6559766

 Free energy of the ion-electron system (eV)
  alpha Z        PSCENC =        61.01372595
  Ewald energy   TEWEN  =      -598.90499562
  -Hartree energ DENC   =       -92.15087149
  -exchange      EXHF   =         0.00000000
  -V(xc)+E(xc)   XCENC  =         4.60965875
  PAW double counting   =       522.33230711     -532.98528165
  entropy T*S    EENTRO =         0.00071816
  eigenvalues    EBANDS =        29.54956083
  atomic energy  EATOM  =       597.33035224
  Solvation  Ediel_sol  =         0.00000000
  free energy    TOTEN  =        -9.20482572 eV

  energy without entropy =       -9.20554388  energy(sigma->0) =       -9.20506510

 average (electrostatic) potential at core
  the test charge radii are     1.0103
  (the norm of the test charge is              1.0000)
       1 -43.6072

 E-fermi :   6.0813     XC(G=0): -13.6121     alpha+bet :-14.0459

 spin component 1

 k-point     1 :       0.0167    0.0167    0.0167
  band No.  band energies     occupation
      1      -2.6040      1.00000
      2       3.6991      1.00000
      3       3.6991      1.00000
      4       3.7593      1.00000
      5       5.1258      1.00000
      6       5.1258      1.00000
      7      30.9374      0.00000
      8      30.9374      0.00000
      9      31.3246      0.00000
     10      36.6669      0.00000

[...]

 spin component 2

[...]

 k-point   744 :      -0.4833    0.4833    0.4833
  band No.  band energies     occupation
      1       2.5855      1.00000
      2       2.5874      1.00000
      3       8.1847     -0.00000
      4       8.1848     -0.00000
      5       8.2035     -0.00000
      6      16.3948      0.00000
      7      16.5989      0.00000
      8      16.5989      0.00000
      9      23.2453      0.00000
     10      23.3559      0.00000

 soft charge-density along one line, spin component           1
         0         1         2         3         4         5         6         7         8         9
 total charge-density along one line

 soft charge-density along one line, spin component           2
         0         1         2         3         4         5         6         7         8         9
 total charge-density along one line

------------------------ aborting loop because EDIFF is reached ----------------------------------------

  FORCE on cell =-STRESS in cart. coord.  units (eV):
  Direction    XX          YY          ZZ          XY          YZ          ZX
  Alpha Z    61.01373    61.01373    61.01373
  Ewald    -199.63499  -199.63499  -199.63499    -0.00000    -0.00000    -0.00000
  Hartree    30.71694    30.71694    30.71694    -0.00000    -0.00000    -0.00000
  E(xc)     -39.51566   -39.51566   -39.51566     0.00001     0.00001     0.00001
  Local      59.86247    59.86247    59.86247     0.00005     0.00005     0.00005
  n-local   -27.08730   -25.79644   -24.86160     1.04285    -0.78593    -1.63158
  augment    38.24825    38.24825    38.24825     0.00001     0.00001     0.00001
  Kinetic    74.40536    73.95035    73.92414    -1.73150     2.04088     1.23988
  Fock        0.00000     0.00000     0.00000     0.00000     0.00000     0.00000
  Total      -1.13109    -1.13109    -1.13109     0.00000     0.00000    -0.00000
  in kB    -165.10652  -165.10652  -165.10652     0.00000     0.00000    -0.00000

 VOLUME and BASIS-vectors are now :
  energy-cutoff  :      267.97
  volume of cell :       10.98
      direct lattice vectors                 reciprocal lattice vectors
    -1.400000000  1.400000000  1.400000000     0.000000000  0.357142857  0.357142857
     1.400000000 -1.400000000  1.400000000     0.357142857  0.000000000  0.357142857
     1.400000000  1.400000000 -1.400000000     0.357142857  0.357142857  0.000000000

  length of vectors
     2.424871131  2.424871131  2.424871131     0.505076272  0.505076272  0.505076272

 FORCES acting on ions
    electron-ion (+dipol)            ewald-force                    non-local-force                 convergence-correction
   0.583E-14 0.101E-13 0.940E-14   -.101E-14 -.525E-15 -.290E-15   0.517E-24 -.620E-24 -.207E-24   0.153E-13 0.106E-13 0.544E-14
   0.583E-14 0.101E-13 0.940E-14   -.101E-14 -.525E-15 -.290E-15   0.517E-24 -.620E-24 -.207E-24   0.153E-13 0.106E-13 0.544E-14

 POSITION                                       TOTAL-FORCE (eV/Angst)
      0.00000      0.00000      0.00000         0.000000      0.000000      0.000000
    total drift:                                0.000000      0.000000      0.000000

  FREE ENERGIE OF THE ION-ELECTRON SYSTEM (eV)
  free  energy   TOTEN  =        -9.20482572 eV

  energy  without entropy=       -9.20554388  energy(sigma->0) =       -9.20506510

volume of typ            1:    84.2 %

total charge

# of ion       s       p       d       tot
    1        0.425   0.466   6.193   7.085

magnetization (x)

[...]

orbital moment (x)

[...]

orbital moment (y)

[...]

orbital moment (z)

[...]

orbital moment (x)

[...]

orbital moment (y)

[...]

orbital moment (z)

# of ion     s             p             d             tot
    1     0.000000E+00 -0.330890E-10  0.157185E-10 -0.173705E-10