 vasp.5.4.4.18Apr17-6-g9f103f2a35 (build May 20 2018 16:52:39) complex

 executed on             LinuxIFC date 2022.11.14  00:57:54

 INCAR:
 POTCAR:    PAW Al
 POTCAR:    PAW Al
   VRHFIN =Al: s2p1

   TITEL  = PAW Al
   POMASS =   26.982; ZVAL   =    3.000    mass and valenz
   ENMAX  =  240.437; ENMIN  =  180.327 eV
   QCUT   =   -4.204; QGAM   =    8.408    optimization parameters

   Description
     l     E      TYP  RCUT    TYP  RCUT
     0   .000     23  1.900
     0   .000     23  1.900
     1   .000     23  1.900
     1  1.000     23  1.900
     2   .000      7  1.900

  PAW Al                                :

 POSCAR: Al fcc
  positions in direct lattice
 exchange correlation table for  LEXCH =        7
   RHO(1)=    0.500       N(1)  =     2000
   RHO(2)=  100.500       N(2)  =     4000

 ion  position               nearest neighbor table
   1  0.000  0.000  0.000-

  LATTYP: Found a face centered cubic cell.
 ALAT       =     4.0500000000

  Lattice vectors:

 A1 = (   2.0250000000,   2.0250000000,   0.0000000000)
 A2 = (   0.0000000000,   2.0250000000,   2.0250000000)
 A3 = (   2.0250000000,   0.0000000000,   2.0250000000)

Analysis of symmetry for initial positions (statically):
 Subroutine PRICEL returns:
 Original cell was already a primitive cell.

 Routine SETGRP: Setting up the symmetry group for a
 face centered cubic supercell.

 Subroutine GETGRP returns: Found 48 space group operations
 (whereof 48 operations were pure point group operations)
 out of a pool of 48 trial point group operations.

The static configuration has the point symmetry O_h .

Analysis of symmetry for dynamics (positions and initial velocities):
 Subroutine PRICEL returns:
 Original cell was already a primitive cell.

 Routine SETGRP: Setting up the symmetry group for a
 face centered cubic supercell.

 Subroutine GETGRP returns: Found 48 space group operations
 (whereof 48 operations were pure point group operations)
 out of a pool of 48 trial point group operations.

The dynamic configuration has the point symmetry O_h .

 Subroutine INISYM returns: Found 48 space group operations
 (whereof 48 operations are pure point group operations),
 and found     1 'primitive' translations

 KPOINTS: 20x20x20

Automatic generation of k-mesh.
Space group operators:
 irot       det(A)        alpha          n_x          n_y          n_z        tau_x        tau_y        tau_z
    1     1.000000     0.000001     1.000000     0.000000     0.000000     0.000000     0.000000     0.000000
    2    -1.000000     0.000001     1.000000     0.000000     0.000000     0.000000     0.000000     0.000000
    3     1.000000   120.000000    -0.577350    -0.577350    -0.577350     0.000000     0.000000     0.000000
    4    -1.000000   120.000000    -0.577350    -0.577350    -0.577350     0.000000     0.000000     0.000000
    5     1.000000   120.000000     0.577350     0.577350     0.577350     0.000000     0.000000     0.000000
    6    -1.000000   120.000000     0.577350     0.577350     0.577350     0.000000     0.000000     0.000000
    7     1.000000    90.000000     0.000000    -1.000000     0.000000     0.000000     0.000000     0.000000
    8    -1.000000    90.000000     0.000000    -1.000000     0.000000     0.000000     0.000000     0.000000
    9     1.000000   180.000000     0.707107     0.707107     0.000000     0.000000     0.000000     0.000000
   10    -1.000000   180.000000     0.707107     0.707107     0.000000     0.000000     0.000000     0.000000
   11     1.000000    90.000000     1.000000     0.000000     0.000000     0.000000     0.000000     0.000000
   12    -1.000000    90.000000     1.000000     0.000000     0.000000     0.000000     0.000000     0.000000
   13     1.000000   180.000000     0.000000     1.000000     0.000000     0.000000     0.000000     0.000000
   14    -1.000000   180.000000     0.000000     1.000000     0.000000     0.000000     0.000000     0.000000
   15     1.000000   120.000000     0.577350     0.577350    -0.577350     0.000000     0.000000     0.000000
   16    -1.000000   120.000000     0.577350     0.577350    -0.577350     0.000000     0.000000     0.000000
   17     1.000000   120.000000     0.577350    -0.577350    -0.577350     0.000000     0.000000     0.000000
   18    -1.000000   120.000000     0.577350    -0.577350    -0.577350     0.000000     0.000000     0.000000
   19     1.000000    90.000000     0.000000     1.000000     0.000000     0.000000     0.000000     0.000000
   20    -1.000000    90.000000     0.000000     1.000000     0.000000     0.000000     0.000000     0.000000
   21     1.000000    90.000000     0.000000     0.000000    -1.000000     0.000000     0.000000     0.000000
   22    -1.000000    90.000000     0.000000     0.000000    -1.000000     0.000000     0.000000     0.000000
   23     1.000000   180.000000     0.000000     0.707107     0.707107     0.000000     0.000000     0.000000
   24    -1.000000   180.000000     0.000000     0.707107     0.707107     0.000000     0.000000     0.000000
   25     1.000000   120.000000    -0.577350     0.577350     0.577350     0.000000     0.000000     0.000000
   26    -1.000000   120.000000    -0.577350     0.577350     0.577350     0.000000     0.000000     0.000000
   27     1.000000   120.000000    -0.577350     0.577350    -0.577350     0.000000     0.000000     0.000000
   28    -1.000000   120.000000    -0.577350     0.577350    -0.577350     0.000000     0.000000     0.000000
   29     1.000000   180.000000     0.000000     0.000000     1.000000     0.000000     0.000000     0.000000
   30    -1.000000   180.000000     0.000000     0.000000     1.000000     0.000000     0.000000     0.000000
   31     1.000000    90.000000    -1.000000     0.000000     0.000000     0.000000     0.000000     0.000000
   32    -1.000000    90.000000    -1.000000     0.000000     0.000000     0.000000     0.000000     0.000000
   33     1.000000   180.000000     0.707107     0.000000     0.707107     0.000000     0.000000     0.000000
   34    -1.000000   180.000000     0.707107     0.000000     0.707107     0.000000     0.000000     0.000000
   35     1.000000    90.000000     0.000000     0.000000     1.000000     0.000000     0.000000     0.000000
   36    -1.000000    90.000000     0.000000     0.000000     1.000000     0.000000     0.000000     0.000000
   37     1.000000   120.000000    -0.577350    -0.577350     0.577350     0.000000     0.000000     0.000000
   38    -1.000000   120.000000    -0.577350    -0.577350     0.577350     0.000000     0.000000     0.000000
   39     1.000000   180.000000     1.000000     0.000000     0.000000     0.000000     0.000000     0.000000
   40    -1.000000   180.000000     1.000000     0.000000     0.000000     0.000000     0.000000     0.000000
   41     1.000000   120.000000     0.577350    -0.577350     0.577350     0.000000     0.000000     0.000000
   42    -1.000000   120.000000     0.577350    -0.577350     0.577350     0.000000     0.000000     0.000000
   43     1.000000   180.000000     0.707107    -0.707107     0.000000     0.000000     0.000000     0.000000
   44    -1.000000   180.000000     0.707107    -0.707107     0.000000     0.000000     0.000000     0.000000
   45     1.000000   180.000000     0.707107     0.000000    -0.707107     0.000000     0.000000     0.000000
   46    -1.000000   180.000000     0.707107     0.000000    -0.707107     0.000000     0.000000     0.000000
   47     1.000000   180.000000     0.000000    -0.707107     0.707107     0.000000     0.000000     0.000000
   48    -1.000000   180.000000     0.000000    -0.707107     0.707107     0.000000     0.000000     0.000000

 Subroutine IBZKPT returns following result:

 Found    770 irreducible k-points:

 Following reciprocal coordinates:
            Coordinates               Weight
  0.025000  0.025000  0.025000     96.000000
  0.075000  0.025000  0.025000    288.000000
  0.125000  0.025000  0.025000    288.000000
  0.175000  0.025000  0.025000    288.000000
  0.225000  0.025000  0.025000    288.000000
  0.275000  0.025000  0.025000    288.000000
  0.325000  0.025000  0.025000    288.000000
  0.375000  0.025000  0.025000    288.000000
  0.425000  0.025000  0.025000    288.000000
  0.475000  0.025000  0.025000    288.000000
 -0.475000  0.025000  0.025000    288.000000
 -0.425000  0.025000  0.025000    288.000000
 -0.375000  0.025000  0.025000    288.000000
 -0.325000  0.025000  0.025000    288.000000
 -0.275000  0.025000  0.025000    288.000000
 -0.225000  0.025000  0.025000    288.000000
 -0.175000  0.025000  0.025000    288.000000
 -0.125000  0.025000  0.025000    288.000000
 -0.075000  0.025000  0.025000    288.000000
 -0.025000  0.025000  0.025000    288.000000
  0.075000  0.075000  0.025000    288.000000
  0.125000  0.075000  0.025000    576.000000
  0.175000  0.075000  0.025000    576.000000
  0.225000  0.075000  0.025000    576.000000
  0.275000  0.075000  0.025000    576.000000
  0.325000  0.075000  0.025000    576.000000
  0.375000  0.075000  0.025000    576.000000
  0.425000  0.075000  0.025000    576.000000
  0.475000  0.075000  0.025000    576.000000
 -0.475000  0.075000  0.025000    576.000000
 -0.425000  0.075000  0.025000    576.000000
 -0.375000  0.075000  0.025000    576.000000
 -0.325000  0.075000  0.025000    576.000000
 -0.275000  0.075000  0.025000    576.000000
 -0.225000  0.075000  0.025000    576.000000
 -0.175000  0.075000  0.025000    576.000000
 -0.125000  0.075000  0.025000    576.000000
 -0.075000  0.075000  0.025000    576.000000
 -0.025000  0.075000  0.025000    576.000000
  0.125000  0.125000  0.025000    288.000000
  0.175000  0.125000  0.025000    576.000000
  0.225000  0.125000  0.025000    576.000000
  0.275000  0.125000  0.025000    576.000000
  0.325000  0.125000  0.025000    576.000000
  0.375000  0.125000  0.025000    576.000000
  0.425000  0.125000  0.025000    576.000000
  0.475000  0.125000  0.025000    576.000000
 -0.475000  0.125000  0.025000    576.000000
 -0.425000  0.125000  0.025000    576.000000
 -0.375000  0.125000  0.025000    576.000000
 -0.325000  0.125000  0.025000    576.000000
 -0.275000  0.125000  0.025000    576.000000
 -0.225000  0.125000  0.025000    576.000000
 -0.175000  0.125000  0.025000    576.000000
 -0.125000  0.125000  0.025000    576.000000
 -0.075000  0.125000  0.025000    576.000000
 -0.025000  0.125000  0.025000    576.000000
  0.175000  0.175000  0.025000    288.000000
  0.225000  0.175000  0.025000    576.000000
  0.275000  0.175000  0.025000    576.000000
[...]
 -0.425000  0.475000  0.375000    576.000000
 -0.375000  0.475000  0.375000    576.000000
 -0.475000 -0.475000  0.375000    288.000000
 -0.425000 -0.475000  0.375000    576.000000
 -0.425000 -0.425000  0.375000    288.000000
  0.425000  0.425000  0.425000     96.000000
  0.475000  0.425000  0.425000    288.000000
 -0.475000  0.425000  0.425000    288.000000
 -0.425000  0.425000  0.425000    288.000000
  0.475000  0.475000  0.425000    288.000000
 -0.475000  0.475000  0.425000    576.000000
 -0.425000  0.475000  0.425000    576.000000
 -0.475000 -0.475000  0.425000    288.000000
  0.475000  0.475000  0.475000     96.000000
[...]
   0.47500000  0.47500000  0.42500000       0.001
  -0.47500000  0.47500000  0.42500000       0.002
  -0.42500000  0.47500000  0.42500000       0.002
  -0.47500000 -0.47500000  0.42500000       0.001
   0.47500000  0.47500000  0.47500000       0.000
  -0.47500000  0.47500000  0.47500000       0.001

 position of ions in fractional coordinates (direct lattice)
   0.00000000  0.00000000  0.00000000

 position of ions in cartesian coordinates  (Angst):
   0.00000000  0.00000000  0.00000000

 k-point  1 :   0.0250 0.0250 0.0250  plane waves:     411
 k-point  2 :   0.0750 0.0250 0.0250  plane waves:     413
 k-point  3 :   0.1250 0.0250 0.0250  plane waves:     419
 k-point  4 :   0.1750 0.0250 0.0250  plane waves:     418
 k-point  5 :   0.2250 0.0250 0.0250  plane waves:     418
 k-point  6 :   0.2750 0.0250 0.0250  plane waves:     419
 k-point  7 :   0.3250 0.0250 0.0250  plane waves:     421
 k-point  8 :   0.3750 0.0250 0.0250  plane waves:     421
 k-point  9 :   0.4250 0.0250 0.0250  plane waves:     420
 k-point 10 :   0.4750 0.0250 0.0250  plane waves:     418
 k-point 11 :  -0.4750 0.0250 0.0250  plane waves:     418
 k-point 12 :  -0.4250 0.0250 0.0250  plane waves:     420
 k-point 13 :  -0.3750 0.0250 0.0250  plane waves:     420
 k-point 14 :  -0.3250 0.0250 0.0250  plane waves:     423
 k-point 15 :  -0.2750 0.0250 0.0250  plane waves:     421
 k-point 16 :  -0.2250 0.0250 0.0250  plane waves:     421
 k-point 17 :  -0.1750 0.0250 0.0250  plane waves:     418
 k-point 18 :  -0.1250 0.0250 0.0250  plane waves:     419
 k-point 19 :  -0.0750 0.0250 0.0250  plane waves:     421
 k-point 20 :  -0.0250 0.0250 0.0250  plane waves:     411
 k-point 21 :   0.0750 0.0750 0.0250  plane waves:     415
 k-point 22 :   0.1250 0.0750 0.0250  plane waves:     422
 k-point 23 :   0.1750 0.0750 0.0250  plane waves:     419
 k-point 24 :   0.2250 0.0750 0.0250  plane waves:     419
 k-point 25 :   0.2750 0.0750 0.0250  plane waves:     417
 k-point 26 :   0.3250 0.0750 0.0250  plane waves:     417
 k-point 27 :   0.3750 0.0750 0.0250  plane waves:     420
 k-point 28 :   0.4250 0.0750 0.0250  plane waves:     421
 k-point 29 :   0.4750 0.0750 0.0250  plane waves:     419
 k-point 30 :  -0.4750 0.0750 0.0250  plane waves:     421
 k-point 31 :  -0.4250 0.0750 0.0250  plane waves:     422
 k-point 32 :  -0.3750 0.0750 0.0250  plane waves:     419
 k-point 33 :  -0.3250 0.0750 0.0250  plane waves:     419
 k-point 34 :  -0.2750 0.0750 0.0250  plane waves:     417
 k-point 35 :  -0.2250 0.0750 0.0250  plane waves:     418
 k-point 36 :  -0.1750 0.0750 0.0250  plane waves:     417
 k-point 37 :  -0.1250 0.0750 0.0250  plane waves:     418
 k-point 38 :  -0.0750 0.0750 0.0250  plane waves:     421
 k-point 39 :  -0.0250 0.0750 0.0250  plane waves:     419
 k-point 40 :   0.1250 0.1250 0.0250  plane waves:     421
 k-point 41 :   0.1750 0.1250 0.0250  plane waves:     416
 k-point 42 :   0.2250 0.1250 0.0250  plane waves:     419
 k-point 43 :   0.2750 0.1250 0.0250  plane waves:     419
 k-point 44 :   0.3250 0.1250 0.0250  plane waves:     423
 k-point 45 :   0.3750 0.1250 0.0250  plane waves:     423
 k-point 46 :   0.4250 0.1250 0.0250  plane waves:     423
 k-point 47 :   0.4750 0.1250 0.0250  plane waves:     424
 k-point 48 :  -0.4750 0.1250 0.0250  plane waves:     421
 k-point 49 :  -0.4250 0.1250 0.0250  plane waves:     419
 k-point 50 :  -0.3750 0.1250 0.0250  plane waves:     422
 k-point 51 :  -0.3250 0.1250 0.0250  plane waves:     421
 k-point 52 :  -0.2750 0.1250 0.0250  plane waves:     420
 k-point 53 :  -0.2250 0.1250 0.0250  plane waves:     418
 k-point 54 :  -0.1750 0.1250 0.0250  plane waves:     419
 k-point 55 :  -0.1250 0.1250 0.0250  plane waves:     417
 k-point 56 :  -0.0750 0.1250 0.0250  plane waves:     417
 k-point 57 :  -0.0250 0.1250 0.0250  plane waves:     420
 k-point 58 :   0.1750 0.1750 0.0250  plane waves:     419
 k-point 59 :   0.2250 0.1750 0.0250  plane waves:     424
 k-point 60 :   0.2750 0.1750 0.0250  plane waves:     425
[...]
 k-point 85 :  -0.2750 0.2250 0.0250  plane waves:     419
 k-point 86 :  -0.2250 0.2250 0.0250  plane waves:     417
 k-point 87 :  -0.1750 0.2250 0.0250  plane waves:     419
 k-point 88 :  -0.1250 0.2250 0.0250  plane waves:     423
 k-point 89 :  -0.0750 0.2250 0.0250  plane waves:     420
 k-point 90 :  -0.0250 0.2250 0.0250  plane waves:     417
 k-point 91 :   0.2750 0.2750 0.0250  plane waves:     429
 k-point 92 :   0.3250 0.2750 0.0250  plane waves:     428
 k-point 93 :   0.3750 0.2750 0.0250  plane waves:     428
 k-point 94 :   0.4250 0.2750 0.0250  plane waves:     425
 k-point 95 :   0.4750 0.2750 0.0250  plane waves:     424
 k-point 96 :  -0.4750 0.2750 0.0250  plane waves:     422
 k-point 97 :  -0.4250 0.2750 0.0250  plane waves:     420
 k-point 98 :  -0.3750 0.2750 0.0250  plane waves:     418
 k-point 99 :  -0.3250 0.2750 0.0250  plane waves:     418
 k-point ** :  -0.2750 0.2750 0.0250  plane waves:     419
 k-point ** :  -0.2250 0.2750 0.0250  plane waves:     419
 k-point ** :  -0.1750 0.2750 0.0250  plane waves:     418
 k-point ** :  -0.1250 0.2750 0.0250  plane waves:     421
 k-point ** :  -0.0750 0.2750 0.0250  plane waves:     420
 k-point ** :  -0.0250 0.2750 0.0250  plane waves:     418
 k-point ** :   0.3250 0.3250 0.0250  plane waves:     432
 k-point ** :   0.3750 0.3250 0.0250  plane waves:     432
 k-point ** :   0.4250 0.3250 0.0250  plane waves:     428
 k-point ** :   0.4750 0.3250 0.0250  plane waves:     425
 k-point ** :  -0.4750 0.3250 0.0250  plane waves:     424
 k-point ** :  -0.4250 0.3250 0.0250  plane waves:     424
 k-point ** :  -0.3750 0.3250 0.0250  plane waves:     420
 k-point ** :  -0.3250 0.3250 0.0250  plane waves:     419
 k-point ** :  -0.2750 0.3250 0.0250  plane waves:     420
 k-point ** :  -0.2250 0.3250 0.0250  plane waves:     419
 k-point ** :  -0.1750 0.3250 0.0250  plane waves:     420
 k-point ** :  -0.1250 0.3250 0.0250  plane waves:     421
 k-point ** :  -0.0750 0.3250 0.0250  plane waves:     420
 k-point ** :  -0.0250 0.3250 0.0250  plane waves:     419
 k-point ** :   0.3750 0.3750 0.0250  plane waves:     431
 k-point ** :   0.4250 0.3750 0.0250  plane waves:     434
 k-point ** :   0.4750 0.3750 0.0250  plane waves:     425
 k-point ** :  -0.4750 0.3750 0.0250  plane waves:     426
 k-point ** :  -0.4250 0.3750 0.0250  plane waves:     426
 k-point ** :  -0.3750 0.3750 0.0250  plane waves:     425
 k-point ** :  -0.3250 0.3750 0.0250  plane waves:     419
 k-point ** :  -0.2750 0.3750 0.0250  plane waves:     417
 k-point ** :  -0.2250 0.3750 0.0250  plane waves:     418
 k-point ** :  -0.1750 0.3750 0.0250  plane waves:     421
 k-point ** :  -0.1250 0.3750 0.0250  plane waves:     420
 k-point ** :  -0.0750 0.3750 0.0250  plane waves:     420
 k-point ** :  -0.0250 0.3750 0.0250  plane waves:     420
 k-point ** :   0.4250 0.4250 0.0250  plane waves:     430
 k-point ** :   0.4750 0.4250 0.0250  plane waves:     430
 k-point ** :  -0.4750 0.4250 0.0250  plane waves:     425
 k-point ** :  -0.4250 0.4250 0.0250  plane waves:     427
 k-point ** :  -0.3750 0.4250 0.0250  plane waves:     430
 k-point ** :  -0.3250 0.4250 0.0250  plane waves:     424
 k-point ** :  -0.2750 0.4250 0.0250  plane waves:     420
 k-point ** :  -0.2250 0.4250 0.0250  plane waves:     419
 k-point ** :  -0.1750 0.4250 0.0250  plane waves:     417
 k-point ** :  -0.1250 0.4250 0.0250  plane waves:     422
 k-point ** :  -0.0750 0.4250 0.0250  plane waves:     421
 k-point ** :  -0.0250 0.4250 0.0250  plane waves:     420
 k-point ** :   0.4750 0.4750 0.0250  plane waves:     435
 k-point ** :  -0.4750 0.4750 0.0250  plane waves:     434
 k-point ** :  -0.4250 0.4750 0.0250  plane waves:     426
 k-point ** :  -0.3750 0.4750 0.0250  plane waves:     424
 k-point ** :  -0.3250 0.4750 0.0250  plane waves:     426
 k-point ** :  -0.2750 0.4750 0.0250  plane waves:     423
 k-point ** :  -0.2250 0.4750 0.0250  plane waves:     420
 k-point ** :  -0.1750 0.4750 0.0250  plane waves:     422
 k-point ** :  -0.1250 0.4750 0.0250  plane waves:     422
 k-point ** :  -0.0750 0.4750 0.0250  plane waves:     416
 k-point ** :  -0.0250 0.4750 0.0250  plane waves:     420
 k-point ** :  -0.4750-0.4750 0.0250  plane waves:     442
 k-point ** :  -0.4250-0.4750 0.0250  plane waves:     433
 k-point ** :  -0.3750-0.4750 0.0250  plane waves:     427
 k-point ** :  -0.3250-0.4750 0.0250  plane waves:     424
[...]
 k-point ** :  -0.4250 0.4750 0.3750  plane waves:     422
 k-point ** :  -0.3750 0.4750 0.3750  plane waves:     419
 k-point ** :  -0.4750-0.4750 0.3750  plane waves:     425
 k-point ** :  -0.4250-0.4750 0.3750  plane waves:     424
 k-point ** :  -0.4250-0.4250 0.3750  plane waves:     418
 k-point ** :   0.4250 0.4250 0.4250  plane waves:     422
 k-point ** :   0.4750 0.4250 0.4250  plane waves:     422
 k-point ** :  -0.4750 0.4250 0.4250  plane waves:     421
 k-point ** :  -0.4250 0.4250 0.4250  plane waves:     418
 k-point ** :   0.4750 0.4750 0.4250  plane waves:     422
 k-point ** :  -0.4750 0.4750 0.4250  plane waves:     417
 k-point ** :  -0.4250 0.4750 0.4250  plane waves:     421
 k-point ** :  -0.4750-0.4750 0.4250  plane waves:     421
 k-point ** :   0.4750 0.4750 0.4750  plane waves:     416
 k-point ** :  -0.4750 0.4750 0.4750  plane waves:     416

 maximum and minimum number of plane-waves per node :       442      411

 maximum number of plane-waves:       442
 maximum index in each direction:
   IXMAX=    5   IYMAX=    5   IZMAX=    5
   IXMIN=   -5   IYMIN=   -5   IZMIN=   -5

 serial   3D FFT for wavefunctions
 parallel 3D FFT for charge:
    minimum data exchange during FFTs selected (reduces bandwidth)

 Broyden mixing: mesh for mixing (old mesh)
   NGX = 11   NGY = 11   NGZ = 11
  (NGX  = 32   NGY  = 32   NGZ  = 32)
  gives a total of   1331 points

 initial charge density was supplied:
 charge density of overlapping atoms calculated
 number of electron       3.0000000 magnetization
 keeping initial charge density in first step

 Maximum index for augmentation-charges         9405 (set IRDMAX)

 First call to EWALD:  gamma=   0.695
 Maximum number of real-space cells 3x 3x 3
 Maximum number of reciprocal cells 3x 3x 3

--------------------------------------- Iteration      1(   1)  ---------------------------------------

 BZINTS: Fermi energy:  9.650318;  3.000000 electrons
         Band energy:  12.713697;  BLOECHL correction: -0.161411

 eigenvalue-minimisations  :  8200
 total energy-change (2. order) :-0.1563396E+01  (-0.8517762E+02)
 number of electron       3.0000000 magnetization
 augmentation part        3.0000000 magnetization

 Free energy of the ion-electron system (eV)
  alpha Z        PSCENC =        -0.15332662
  Ewald energy   TEWEN  =       -73.35670894
  -Hartree energ DENC   =        -0.10550201
  -exchange      EXHF   =         0.00000000
  -V(xc)+E(xc)   XCENC  =       -26.40553030
  PAW double counting   =        35.65910006       -3.60582523
  entropy T*S    EENTRO =         0.00000000
  eigenvalues    EBANDS =        12.71369678
  atomic energy  EATOM  =        53.69070033
  Solvation  Ediel_sol  =         0.00000000
  free energy    TOTEN  =        -1.56339593 eV

  energy without entropy =       -1.56339593  energy(sigma->0) =       -1.56339593

[...]

 Broyden mixing:
  rms(total) = 0.91279E-01    rms(broyden)= 0.91278E-01
  rms(prec ) = 0.34100E+00
  weight for this iteration     100.00

[...]

 eigenvalue-minimisations  :  9050
 total energy-change (2. order) : 0.1150660E-01  (-0.1697504E-03)
 number of electron       3.0000000 magnetization
 augmentation part       -0.0399559 magnetization

[...]

 eigenvalues of (default mixing * dielectric matrix)
  average eigenvalue GAMMA=   2.6420
  2.6420

[...]

 eigenvalue-minimisations  :  8480
 total energy-change (2. order) :-0.1939525E-05  (-0.4332472E-07)
 number of electron       3.0000000 magnetization
 augmentation part       -0.0409913 magnetization

 Broyden mixing:
  rms(total) = 0.96876E-04    rms(broyden)= 0.96875E-04
  rms(prec ) = 0.19186E-03
  weight for this iteration     100.00

 eigenvalues of (default mixing * dielectric matrix)
  average eigenvalue GAMMA=   2.1210
  1.0016  2.6536  2.6536  2.1753

[...]

--------------------------------------- Iteration      1(  10)  ---------------------------------------

[...]

 eigenvalue-minimisations  :  5180
 total energy-change (2. order) : 0.3670582E-06  (-0.1071538E-08)
 number of electron       3.0000000 magnetization
 augmentation part       -0.0409913 magnetization

 Free energy of the ion-electron system (eV)
  alpha Z        PSCENC =        -0.15332662
  Ewald energy   TEWEN  =       -73.35670894
  -Hartree energ DENC   =        -0.10651420
  -exchange      EXHF   =         0.00000000
  -V(xc)+E(xc)   XCENC  =       -26.29410411
  PAW double counting   =        35.75826049       -3.72186894
  entropy T*S    EENTRO =         0.00000000
  eigenvalues    EBANDS =        10.48613483
  atomic energy  EATOM  =        53.69070033
  Solvation  Ediel_sol  =         0.00000000
  free energy    TOTEN  =        -3.69742716 eV

  energy without entropy =       -3.69742716  energy(sigma->0) =       -3.69742716

 average (electrostatic) potential at core
  the test charge radii are     1.0406
  (the norm of the test charge is              1.0000)
       1 -72.3024

 E-fermi :   7.9186     XC(G=0): -10.1853     alpha+bet :-14.7760

 k-point     1 :       0.0250    0.0250    0.0250
  band No.  band energies     occupation
      1      -3.1647      2.00000
      2      20.0154      0.00000
      3      20.3822      0.00000
      4      20.3822      0.00000
      5      21.9804      0.00000

[...]

 k-point   770 :      -0.4750    0.4750    0.4750
  band No.  band energies     occupation
      1       3.2592      2.00000
      2       3.7234      2.00000
      3      17.7341      0.00000
      4      18.3366      0.00000
      5      19.6988      0.00000

 soft charge-density along one line, spin component           1
         0         1         2         3         4         5         6         7         8         9
 total charge-density along one line

------------------------ aborting loop because EDIFF is reached ----------------------------------------

  FORCE on cell =-STRESS in cart. coord.  units (eV):
  Direction    XX          YY          ZZ          XY          YZ          ZX
  Alpha Z    -0.15333    -0.15333    -0.15333
  Ewald     -24.45224   -24.45224   -24.45224     0.00000     0.00000    -0.00000
  Hartree     0.03551     0.03551     0.03551     0.00000     0.00000     0.00000
  E(xc)      -8.63378    -8.63378    -8.63378     0.00000     0.00000     0.00000
  Local       0.21111     0.21111     0.21111    -0.00000    -0.00000    -0.00000
  n-local    18.82074    19.02596    19.33164    -0.27073     0.00099     0.25560
  augment    -1.07309    -1.07309    -1.07309     0.00000     0.00000     0.00000
  Kinetic    10.94330    21.07135    12.91137     4.28166    -0.00270    -4.20334
  Fock        0.00000     0.00000     0.00000     0.00000     0.00000     0.00000
  Total      -0.03104    -0.03104    -0.03104     0.00000     0.00000     0.00000
  in kB      -2.99459    -2.99459    -2.99459     0.00000     0.00000     0.00000

 VOLUME and BASIS-vectors are now :
  energy-cutoff  :      500.00
  volume of cell :       16.61
      direct lattice vectors                 reciprocal lattice vectors
     2.025000000  2.025000000  0.000000000     0.246913580  0.246913580 -0.246913580
     0.000000000  2.025000000  2.025000000    -0.246913580  0.246913580  0.246913580
     2.025000000  0.000000000  2.025000000     0.246913580 -0.246913580  0.246913580

  length of vectors
     2.863782464  2.863782464  2.863782464     0.427666866  0.427666866  0.427666866

 FORCES acting on ions
    electron-ion (+dipol)            ewald-force                    non-local-force                 convergence-correction
   -.683E-15 -.102E-15 0.651E-15   -.122E-15 -.249E-16 -.758E-16   0.414E-24 -.414E-24 -.310E-24   -.362E-17 0.896E-18 -.176E-18
   -.683E-15 -.102E-15 0.651E-15   -.122E-15 -.249E-16 -.758E-16   0.414E-24 -.414E-24 -.310E-24   -.362E-17 0.896E-18 -.176E-18

 POSITION                                       TOTAL-FORCE (eV/Angst)
      0.00000      0.00000      0.00000         0.000000      0.000000     -0.000000
    total drift:                               -0.000000     -0.000000      0.000000

  FREE ENERGIE OF THE ION-ELECTRON SYSTEM (eV)
  free  energy   TOTEN  =        -3.69742716 eV

  energy  without entropy=       -3.69742716  energy(sigma->0) =       -3.69742716

 BZINTS: Fermi energy:  7.918557;  3.000000 electrons
         Band energy:  10.486135;  BLOECHL correction: -0.020395