 vasp.5.3.5 31Mar14 (build Dec 14 2018 19:18:10) complex

 INCAR:
 POTCAR:   PAW_PBE W 08Apr2002
 POTCAR:   PAW_PBE W 08Apr2002
   VRHFIN =W : 6s5d

   TITEL  = PAW_PBE W 08Apr2002
   POMASS =  183.850; ZVAL   =    6.000    mass and valenz
   ENMAX  =  223.057; ENMIN  =  167.293 eV
   QCUT   =   -4.049; QGAM   =    8.098    optimization parameters

   Description
     l     E      TYP  RCUT    TYP  RCUT
     2   .000     23  2.500
     2   .000     23  2.500
     0   .000     23  2.500
     0   .000     23  2.500
     1   .200     23  2.750
     1  2.000     23  2.750
     3   .000      7   .000

 PAW_PBE W 08Apr2002                    :

 POSCAR: W bulk bcc
  positions in direct lattice
  velocities in cartesian coordinates
 exchange correlation table for  LEXCH =        8
   RHO(1)=    0.500       N(1)  =     2000
   RHO(2)=  100.500       N(2)  =     4000

 ion  position               nearest neighbor table
   1  0.000  0.000  0.000-

  LATTYP: Found a body centered cubic cell.
 ALAT       =     3.1652000000

  Lattice vectors:

 A1 = (  -1.5826000000,   1.5826000000,   1.5826000000)
 A2 = (   1.5826000000,  -1.5826000000,   1.5826000000)
 A3 = (   1.5826000000,   1.5826000000,  -1.5826000000)

Analysis of symmetry for initial positions (statically):
 Subroutine PRICEL returns:
 Original cell was already a primitive cell.

 Routine SETGRP: Setting up the symmetry group for a
 body centered cubic supercell.

 Subroutine GETGRP returns: Found 48 space group operations
 (whereof 48 operations were pure point group operations)
 out of a pool of 48 trial point group operations.

The static configuration has the point symmetry O_h .

Analysis of symmetry for dynamics (positions and initial velocities):
 Subroutine PRICEL returns:
 Original cell was already a primitive cell.

 Routine SETGRP: Setting up the symmetry group for a
 body centered cubic supercell.

 Subroutine GETGRP returns: Found 48 space group operations
 (whereof 48 operations were pure point group operations)
 out of a pool of 48 trial point group operations.

The dynamic configuration has the point symmetry O_h .

 KPOINTS: 20x20x20

Automatic generation of k-mesh.
Space group operators:
 irot       det(A)        alpha          n_x          n_y          n_z        tau_x        tau_y        tau_z
    1     1.000000     0.000000     1.000000     0.000000     0.000000     0.000000     0.000000     0.000000
    2    -1.000000     0.000000     1.000000     0.000000     0.000000     0.000000     0.000000     0.000000
    3     1.000000   120.000000    -0.577350    -0.577350    -0.577350     0.000000     0.000000     0.000000
    4    -1.000000   120.000000    -0.577350    -0.577350    -0.577350     0.000000     0.000000     0.000000
    5     1.000000   120.000000     0.577350     0.577350     0.577350     0.000000     0.000000     0.000000
    6    -1.000000   120.000000     0.577350     0.577350     0.577350     0.000000     0.000000     0.000000
    7     1.000000    90.000000     0.000000     0.000000    -1.000000     0.000000     0.000000     0.000000
    8    -1.000000    90.000000     0.000000     0.000000    -1.000000     0.000000     0.000000     0.000000
    9     1.000000   180.000000     0.000000     0.707107     0.707107     0.000000     0.000000     0.000000
   10    -1.000000   180.000000     0.000000     0.707107     0.707107     0.000000     0.000000     0.000000
   11     1.000000    90.000000     0.000000     1.000000     0.000000     0.000000     0.000000     0.000000
   12    -1.000000    90.000000     0.000000     1.000000     0.000000     0.000000     0.000000     0.000000
   13     1.000000   180.000000     0.000000     0.000000     1.000000     0.000000     0.000000     0.000000
   14    -1.000000   180.000000     0.000000     0.000000     1.000000     0.000000     0.000000     0.000000
   15     1.000000   120.000000    -0.577350     0.577350     0.577350     0.000000     0.000000     0.000000
   16    -1.000000   120.000000    -0.577350     0.577350     0.577350     0.000000     0.000000     0.000000
   17     1.000000   120.000000    -0.577350     0.577350    -0.577350     0.000000     0.000000     0.000000
   18    -1.000000   120.000000    -0.577350     0.577350    -0.577350     0.000000     0.000000     0.000000
   19     1.000000    90.000000     0.000000     0.000000     1.000000     0.000000     0.000000     0.000000
   20    -1.000000    90.000000     0.000000     0.000000     1.000000     0.000000     0.000000     0.000000
   21     1.000000    90.000000    -1.000000     0.000000     0.000000     0.000000     0.000000     0.000000
   22    -1.000000    90.000000    -1.000000     0.000000     0.000000     0.000000     0.000000     0.000000
   23     1.000000   180.000000     0.707107     0.000000     0.707107     0.000000     0.000000     0.000000
   24    -1.000000   180.000000     0.707107     0.000000     0.707107     0.000000     0.000000     0.000000
   25     1.000000   120.000000     0.577350    -0.577350     0.577350     0.000000     0.000000     0.000000
   26    -1.000000   120.000000     0.577350    -0.577350     0.577350     0.000000     0.000000     0.000000
   27     1.000000   120.000000    -0.577350    -0.577350     0.577350     0.000000     0.000000     0.000000
   28    -1.000000   120.000000    -0.577350    -0.577350     0.577350     0.000000     0.000000     0.000000
   29     1.000000   180.000000     1.000000     0.000000     0.000000     0.000000     0.000000     0.000000
   30    -1.000000   180.000000     1.000000     0.000000     0.000000     0.000000     0.000000     0.000000
   31     1.000000    90.000000     0.000000    -1.000000     0.000000     0.000000     0.000000     0.000000
   32    -1.000000    90.000000     0.000000    -1.000000     0.000000     0.000000     0.000000     0.000000
   33     1.000000   180.000000     0.707107     0.707107     0.000000     0.000000     0.000000     0.000000
   34    -1.000000   180.000000     0.707107     0.707107     0.000000     0.000000     0.000000     0.000000
   35     1.000000    90.000000     1.000000     0.000000     0.000000     0.000000     0.000000     0.000000
   36    -1.000000    90.000000     1.000000     0.000000     0.000000     0.000000     0.000000     0.000000
   37     1.000000   120.000000     0.577350    -0.577350    -0.577350     0.000000     0.000000     0.000000
   38    -1.000000   120.000000     0.577350    -0.577350    -0.577350     0.000000     0.000000     0.000000
   39     1.000000   180.000000     0.000000     1.000000     0.000000     0.000000     0.000000     0.000000
   40    -1.000000   180.000000     0.000000     1.000000     0.000000     0.000000     0.000000     0.000000
   41     1.000000   120.000000     0.577350     0.577350    -0.577350     0.000000     0.000000     0.000000
   42    -1.000000   120.000000     0.577350     0.577350    -0.577350     0.000000     0.000000     0.000000
   43     1.000000   180.000000     0.000000    -0.707107     0.707107     0.000000     0.000000     0.000000
   44    -1.000000   180.000000     0.000000    -0.707107     0.707107     0.000000     0.000000     0.000000
   45     1.000000   180.000000     0.707107    -0.707107     0.000000     0.000000     0.000000     0.000000
   46    -1.000000   180.000000     0.707107    -0.707107     0.000000     0.000000     0.000000     0.000000
   47     1.000000   180.000000     0.707107     0.000000    -0.707107     0.000000     0.000000     0.000000
   48    -1.000000   180.000000     0.707107     0.000000    -0.707107     0.000000     0.000000     0.000000

 Subroutine IBZKPT returns following result:

 Found    250 irreducible k-points:

 Following reciprocal coordinates:
            Coordinates               Weight
  0.025000  0.025000  0.025000      8.000000
  0.075000  0.025000  0.025000     24.000000
  0.125000  0.025000  0.025000     24.000000
  0.175000  0.025000  0.025000     24.000000
  0.225000  0.025000  0.025000     24.000000
  0.275000  0.025000  0.025000     24.000000
  0.325000  0.025000  0.025000     24.000000
  0.375000  0.025000  0.025000     24.000000
  0.425000  0.025000  0.025000     24.000000
  0.475000  0.025000  0.025000     12.000000
 -0.025000  0.025000  0.025000      6.000000
  0.075000  0.075000  0.025000     24.000000
  0.125000  0.075000  0.025000     48.000000
  0.175000  0.075000  0.025000     48.000000
  0.225000  0.075000  0.025000     48.000000
  0.275000  0.075000  0.025000     48.000000
  0.325000  0.075000  0.025000     48.000000
  0.375000  0.075000  0.025000     48.000000
  0.425000  0.075000  0.025000     48.000000
 -0.075000  0.075000  0.025000     24.000000
  0.125000  0.125000  0.025000     24.000000
  0.175000  0.125000  0.025000     48.000000
  0.225000  0.125000  0.025000     48.000000
  0.275000  0.125000  0.025000     48.000000
  0.325000  0.125000  0.025000     48.000000
  0.375000  0.125000  0.025000     48.000000
  0.425000  0.125000  0.025000     24.000000
 -0.125000  0.125000  0.025000     24.000000
 -0.075000  0.125000  0.025000     24.000000
  0.175000  0.175000  0.025000     24.000000
  0.225000  0.175000  0.025000     48.000000
  0.275000  0.175000  0.025000     48.000000
  0.325000  0.175000  0.025000     48.000000
  0.375000  0.175000  0.025000     48.000000
 -0.175000  0.175000  0.025000     24.000000
 -0.125000  0.175000  0.025000     48.000000
  0.225000  0.225000  0.025000     24.000000
  0.275000  0.225000  0.025000     48.000000
  0.325000  0.225000  0.025000     48.000000
  0.375000  0.225000  0.025000     24.000000
 -0.225000  0.225000  0.025000     24.000000
 -0.175000  0.225000  0.025000     48.000000
 -0.125000  0.225000  0.025000     24.000000
  0.275000  0.275000  0.025000     24.000000
  0.325000  0.275000  0.025000     48.000000
 -0.275000  0.275000  0.025000     24.000000
 -0.225000  0.275000  0.025000     48.000000
 -0.175000  0.275000  0.025000     48.000000
  0.325000  0.325000  0.025000      8.000000
 -0.325000  0.325000  0.025000     24.000000
 -0.275000  0.325000  0.025000     48.000000
 -0.225000  0.325000  0.025000     48.000000
 -0.175000  0.325000  0.025000     24.000000
 -0.375000  0.375000  0.025000     24.000000
 -0.325000  0.375000  0.025000     48.000000
 -0.275000  0.375000  0.025000     48.000000
 -0.225000  0.375000  0.025000     48.000000
 -0.425000  0.425000  0.025000     24.000000
 -0.375000  0.425000  0.025000     48.000000
 -0.325000  0.425000  0.025000     48.000000
[...]
 -0.425000  0.425000  0.325000     24.000000
 -0.375000  0.425000  0.325000     24.000000
 -0.475000  0.475000  0.325000     24.000000
 -0.425000  0.475000  0.325000     48.000000
 -0.475000 -0.475000  0.325000     24.000000
 -0.425000 -0.475000  0.325000     24.000000
 -0.375000  0.375000  0.375000      6.000000
 -0.425000  0.425000  0.375000     24.000000
 -0.475000  0.475000  0.375000     24.000000
 -0.425000  0.475000  0.375000     24.000000
 -0.475000 -0.475000  0.375000     24.000000
 -0.425000  0.425000  0.425000      6.000000
 -0.475000  0.475000  0.425000     24.000000
 -0.475000 -0.475000  0.425000      8.000000
 -0.475000  0.475000  0.475000      6.000000

 Following cartesian coordinates:
[...]
z    -0.0003    0.0000    0.0001    0.0000   -0.0001   -0.0000    0.0000    0.0000   -0.0000   -0.0000
z     0.0000   -0.0000

------------------------ aborting loop because EDIFF is reached ----------------------------------------

  FORCE on cell =-STRESS in cart. coord.  units (eV):
  Direction    XX          YY          ZZ          XY          YZ          ZX
  Alpha Z    45.96992    45.96992    45.96992
  Ewald     -99.33815   -99.33815   -99.33815    -0.00000     0.00000     0.00000
  Hartree     0.73707     0.73707     0.73707    -0.00000    -0.00000    -0.00000
  E(xc)     -27.02326   -27.02326   -27.02326     0.00004     0.00004     0.00004
  Local       8.94522     8.94522     8.94522    -0.00009    -0.00009    -0.00009
  n-local   -12.94301   -11.17682   -10.87193     1.38189    -1.74824    -3.26349
  augment     5.22597     5.22597     5.22597     0.00001     0.00001     0.00001
  Kinetic    75.66908    76.53822    79.41434    -1.66802     3.44372     1.93983
  Fock        0.00000     0.00000     0.00000     0.00000     0.00000     0.00000
  Total       0.06007     0.06007     0.06007    -0.00000     0.00000    -0.00000
  in kB       6.07005     6.07005     6.07005    -0.00000     0.00000    -0.00000

 VOLUME and BASIS-vectors are now :
  energy-cutoff  :      223.06
  volume of cell :       15.86
      direct lattice vectors                 reciprocal lattice vectors
    -1.582600000  1.582600000  1.582600000     0.000000000  0.315935802  0.315935802
     1.582600000 -1.582600000  1.582600000     0.315935802  0.000000000  0.315935802
     1.582600000  1.582600000 -1.582600000     0.315935802  0.315935802  0.000000000

  length of vectors
     2.741143608  2.741143608  2.741143608     0.446800696  0.446800696  0.446800696

 FORCES acting on ions
    electron-ion (+dipol)            ewald-force                    non-local-force                 convergence-correction
   -.404E-14 -.326E-14 0.182E-15   -.416E-15 0.571E-15 0.387E-15   -.331E-23 0.000E+00 0.331E-23   -.110E-15 0.467E-15 0.881E-15
   -.404E-14 -.326E-14 0.182E-15   -.416E-15 0.571E-15 0.387E-15   -.331E-23 0.000E+00 0.331E-23   -.110E-15 0.467E-15 0.881E-15

 POSITION                                       TOTAL-FORCE (eV/Angst)
      0.00000      0.00000      0.00000         0.000000     -0.000000      0.000000
    total drift:                               -0.000000     -0.000000      0.000000

  FREE ENERGIE OF THE ION-ELECTRON SYSTEM (eV)
  free  energy   TOTEN  =       -13.00304734 eV

  energy  without entropy=      -13.00228050  energy(sigma->0) =      -13.00279173

 writing wavefunctions

 plasma frequency squared (from intraband transitions)
     103.475      -0.000       0.000
      -0.000     103.475       0.000
       0.000       0.000     103.475

 electrical conductivity sigma (Mega S m-1) (frequency dependency in vasprun.xml)
       0.211       0.000      -0.000
       0.000       0.211       0.000
       0.000       0.000       0.211

 plasma frequency squared (from intraband transitions)

 plasma frequency squared (from interband transitions, int dw w eps(2)(w)
     772.448      -0.000      -0.000
      -0.000     772.448      -0.000
      -0.000      -0.000     772.448
 plasma frequency squared  (valence only):     521.796

  frequency dependent IMAGINARY DIELECTRIC FUNCTION (independent particle, no local field effects)
     E(ev)      X         Y         Z        XY        YZ        ZX
    0.000000    0.000000    0.000000    0.000000    0.000000    0.000000    0.000000
    0.642423   42.876002   42.876002   42.876002   -0.000000   -0.000000   -0.000000
    1.284845   22.047510   22.047510   22.047510   -0.000000   -0.000000   -0.000000
    1.927268   22.036108   22.036108   22.036108   -0.000000   -0.000000   -0.000000
    2.569691   23.392159   23.392159   23.392159   -0.000000   -0.000000   -0.000000
    3.212113   19.232681   19.232681   19.232681   -0.000000   -0.000000   -0.000000
    3.854536   18.074216   18.074216   18.074216   -0.000000   -0.000000   -0.000000
    4.496959   18.825534   18.825534   18.825534   -0.000000   -0.000000    0.000000
    5.139381   26.958216   26.958216   26.958216    0.000000    0.000000   -0.000000
    5.781804   15.063843   15.063843   15.063843   -0.000000    0.000000   -0.000000
    6.424226    8.236902    8.236902    8.236902   -0.000000   -0.000000   -0.000000
    7.066649    5.692347    5.692347    5.692347    0.000000   -0.000000    0.000000
    7.709072    3.895636    3.895636    3.895636    0.000000   -0.000000    0.000000
    8.351494    3.699502    3.699502    3.699502   -0.000000    0.000000    0.000000
    8.993917    3.029677    3.029677    3.029677   -0.000000   -0.000000   -0.000000
    9.636340    3.565352    3.565352    3.565352    0.000000   -0.000000    0.000000
   10.278762    4.480760    4.480760    4.480760   -0.000000    0.000000   -0.000000
   10.921185    3.527825    3.527825    3.527825    0.000000    0.000000   -0.000000
   11.563608    3.478854    3.478854    3.478854    0.000000    0.000000    0.000000
   12.206030    2.736237    2.736237    2.736237    0.000000    0.000000   -0.000000
   12.848453    2.578514    2.578514    2.578514    0.000000    0.000000    0.000000
   13.490876    2.052752    2.052752    2.052752    0.000000   -0.000000    0.000000
   14.133298    1.799175    1.799175    1.799175    0.000000   -0.000000   -0.000000
   14.775721    1.681405    1.681405    1.681405   -0.000000   -0.000000   -0.000000
   15.418143    1.444288    1.444288    1.444288    0.000000    0.000000   -0.000000
   16.060566    1.887556    1.887556    1.887556    0.000000   -0.000000    0.000000
   16.702989    2.688637    2.688637    2.688637    0.000000    0.000000    0.000000
   17.345411    2.790599    2.790599    2.790599   -0.000000   -0.000000    0.000000
   17.987834    2.024317    2.024317    2.024317   -0.000000   -0.000000    0.000000
   18.630257    1.878709    1.878709    1.878709   -0.000000   -0.000000    0.000000
   19.272679    1.668689    1.668689    1.668689   -0.000000   -0.000000   -0.000000
   19.915102    0.928996    0.928996    0.928996   -0.000000   -0.000000   -0.000000
   20.557525    0.638623    0.638623    0.638623   -0.000000   -0.000000   -0.000000
   21.199947    0.563979    0.563979    0.563979   -0.000000   -0.000000    0.000000
   21.842370    0.604765    0.604765    0.604765   -0.000000   -0.000000    0.000000
   22.484793    0.560360    0.560360    0.560360   -0.000000   -0.000000    0.000000
   23.127215    0.513563    0.513563    0.513563   -0.000000   -0.000000   -0.000000
   23.769638    0.443869    0.443869    0.443869   -0.000000   -0.000000    0.000000
   24.412061    0.353346    0.353346    0.353346    0.000000    0.000000    0.000000
   25.054483    0.253783    0.253783    0.253783    0.000000    0.000000   -0.000000
   25.696906    0.292857    0.292857    0.292857   -0.000000    0.000000    0.000000
   26.339328    0.296274    0.296274    0.296274   -0.000000   -0.000000   -0.000000
   26.981751    0.276048    0.276048    0.276048   -0.000000   -0.000000    0.000000
   27.624174    0.271526    0.271526    0.271526    0.000000    0.000000   -0.000000
   28.266596    0.239950    0.239950    0.239950   -0.000000   -0.000000   -0.000000
   28.909019    0.210901    0.210901    0.210901   -0.000000   -0.000000    0.000000
   29.551442    0.205229    0.205229    0.205229    0.000000    0.000000   -0.000000
   30.193864    0.169380    0.169380    0.169380   -0.000000    0.000000    0.000000
   30.836287    0.157614    0.157614    0.157614   -0.000000    0.000000    0.000000
   31.478710    0.186763    0.186763    0.186763   -0.000000   -0.000000   -0.000000
   32.121132    0.218031    0.218031    0.218031   -0.000000   -0.000000   -0.000000
   32.763555    0.193934    0.193934    0.193934    0.000000    0.000000   -0.000000
   33.405978    0.244896    0.244896    0.244896   -0.000000   -0.000000   -0.000000
   34.048400    0.171079    0.171079    0.171079   -0.000000    0.000000   -0.000000
   34.690823    0.313189    0.313189    0.313189    0.000000    0.000000   -0.000000
   35.333245    0.394046    0.394046    0.394046   -0.000000   -0.000000   -0.000000
   35.975668    0.710298    0.710298    0.710298    0.000000   -0.000000    0.000000
   36.618091    1.320404    1.320404    1.320404   -0.000000   -0.000000    0.000000
   37.260513    1.215487    1.215487    1.215487    0.000000   -0.000000    0.000000
   37.902936    1.455339    1.455339    1.455339    0.000000   -0.000000    0.000000
[...]
   54.605925    0.001621    0.001621    0.001621   -0.000000   -0.000000   -0.000000
   55.248347    0.001527    0.001527    0.001527   -0.000000   -0.000000   -0.000000
   55.890770    0.001443    0.001443    0.001443   -0.000000   -0.000000   -0.000000
   56.533193    0.001366    0.001366    0.001366   -0.000000   -0.000000   -0.000000
   57.175615    0.001295    0.001295    0.001295   -0.000000   -0.000000   -0.000000
   57.818038    0.001231    0.001231    0.001231   -0.000000   -0.000000   -0.000000
   58.460461    0.001171    0.001171    0.001171   -0.000000   -0.000000   -0.000000
   59.102883    0.001116    0.001116    0.001116   -0.000000   -0.000000   -0.000000
   59.745306    0.001065    0.001065    0.001065   -0.000000   -0.000000   -0.000000
   60.387729    0.001017    0.001017    0.001017   -0.000000   -0.000000   -0.000000
   61.030151    0.000973    0.000973    0.000973   -0.000000   -0.000000   -0.000000
   61.672574    0.000932    0.000932    0.000932   -0.000000   -0.000000   -0.000000
   62.314997    0.000893    0.000893    0.000893   -0.000000   -0.000000   -0.000000
   62.957419    0.000857    0.000857    0.000857   -0.000000   -0.000000   -0.000000
   63.599842    0.000823    0.000823    0.000823   -0.000000   -0.000000   -0.000000

  frequency dependent      REAL DIELECTRIC FUNCTION (independent particle, no local field effects)
     E(ev)      X         Y         Z        XY        YZ        ZX
    0.000000   76.578353   76.578353   76.578353   -0.000000   -0.000000   -0.000000
    0.642423   10.266603   10.266603   10.266603   -0.000000   -0.000000   -0.000000
    1.284845   25.764055   25.764055   25.764055   -0.000000    0.000000    0.000000
    1.927268   24.150550   24.150550   24.150550   -0.000000   -0.000000   -0.000000
    2.569691    8.142835    8.142835    8.142835    0.000000    0.000000   -0.000000
    3.212113   10.384911   10.384911   10.384911    0.000000    0.000000   -0.000000
    3.854536    4.269631    4.269631    4.269631    0.000000   -0.000000    0.000000
    4.496959    5.066491    5.066491    5.066491    0.000000    0.000000   -0.000000
    5.139381    0.292976    0.292976    0.292976    0.000000    0.000000   -0.000000
    5.781804   -9.854952   -9.854952   -9.854952    0.000000    0.000000    0.000000
    6.424226   -8.800772   -8.800772   -8.800772    0.000000   -0.000000    0.000000
    7.066649   -6.440627   -6.440627   -6.440627    0.000000    0.000000    0.000000
    7.709072   -4.163866   -4.163866   -4.163866    0.000000    0.000000    0.000000
    8.351494   -2.311923   -2.311923   -2.311923    0.000000    0.000000    0.000000
    8.993917   -1.759048   -1.759048   -1.759048    0.000000    0.000000   -0.000000
    9.636340   -0.405047   -0.405047   -0.405047    0.000000    0.000000   -0.000000
   10.278762   -0.608875   -0.608875   -0.608875    0.000000    0.000000   -0.000000
   10.921185   -1.166495   -1.166495   -1.166495    0.000000   -0.000000    0.000000
   11.563608   -2.075062   -2.075062   -2.075062   -0.000000   -0.000000    0.000000
   12.206030   -1.344379   -1.344379   -1.344379    0.000000   -0.000000   -0.000000
   12.848453   -1.543723   -1.543723   -1.543723   -0.000000   -0.000000    0.000000
   13.490876   -1.195661   -1.195661   -1.195661   -0.000000   -0.000000    0.000000
   14.133298   -1.100150   -1.100150   -1.100150   -0.000000   -0.000000    0.000000
   14.775721   -0.371463   -0.371463   -0.371463   -0.000000   -0.000000    0.000000
   15.418143   -0.188910   -0.188910   -0.188910   -0.000000   -0.000000    0.000000
   16.060566    0.008863    0.008863    0.008863   -0.000000   -0.000000    0.000000
   16.702989    0.004092    0.004092    0.004092   -0.000000   -0.000000    0.000000
   17.345411   -0.916387   -0.916387   -0.916387   -0.000000   -0.000000    0.000000
   17.987834   -0.909445   -0.909445   -0.909445    0.000000    0.000000   -0.000000
   18.630257   -1.115743   -1.115743   -1.115743    0.000000    0.000000   -0.000000
   19.272679   -1.413733   -1.413733   -1.413733   -0.000000   -0.000000   -0.000000
   19.915102   -1.350072   -1.350072   -1.350072    0.000000    0.000000    0.000000
   20.557525   -0.912072   -0.912072   -0.912072    0.000000    0.000000    0.000000
   21.199947   -0.586691   -0.586691   -0.586691    0.000000    0.000000    0.000000
   21.842370   -0.385650   -0.385650   -0.385650    0.000000    0.000000    0.000000
   22.484793   -0.437283   -0.437283   -0.437283    0.000000    0.000000    0.000000
   23.127215   -0.339412   -0.339412   -0.339412   -0.000000    0.000000    0.000000
   23.769638   -0.236467   -0.236467   -0.236467    0.000000    0.000000    0.000000
   24.412061   -0.213742   -0.213742   -0.213742   -0.000000    0.000000    0.000000
   25.054483   -0.038364   -0.038364   -0.038364    0.000000    0.000000    0.000000
   25.696906    0.061759    0.061759    0.061759    0.000000   -0.000000    0.000000
   26.339328    0.136454    0.136454    0.136454    0.000000   -0.000000    0.000000
   26.981751    0.161763    0.161763    0.161763    0.000000    0.000000    0.000000
   27.624174    0.243169    0.243169    0.243169   -0.000000   -0.000000    0.000000
   28.266596    0.278425    0.278425    0.278425   -0.000000   -0.000000    0.000000
   28.909019    0.300957    0.300957    0.300957    0.000000    0.000000    0.000000
   29.551442    0.406694    0.406694    0.406694    0.000000    0.000000    0.000000
   30.193864    0.424367    0.424367    0.424367   -0.000000    0.000000    0.000000
   30.836287    0.541856    0.541856    0.541856    0.000000    0.000000    0.000000
   31.478710    0.593844    0.593844    0.593844    0.000000    0.000000    0.000000
   32.121132    0.698727    0.698727    0.698727    0.000000   -0.000000    0.000000
   32.763555    0.688072    0.688072    0.688072    0.000000    0.000000    0.000000
   33.405978    0.750317    0.750317    0.750317    0.000000   -0.000000    0.000000
   34.048400    0.862166    0.862166    0.862166    0.000000    0.000000    0.000000
   34.690823    1.120887    1.120887    1.120887    0.000000    0.000000    0.000000
   35.333245    1.142665    1.142665    1.142665   -0.000000   -0.000000    0.000000
   35.975668    1.403862    1.403862    1.403862    0.000000   -0.000000    0.000000
   36.618091    1.243703    1.243703    1.243703    0.000000   -0.000000    0.000000
   37.260513    0.456712    0.456712    0.456712   -0.000000   -0.000000   -0.000000
   37.902936    0.424792    0.424792    0.424792    0.000000    0.000000   -0.000000
[...]
   54.605925    0.677062    0.677062    0.677062    0.000000    0.000000    0.000000
   55.248347    0.687169    0.687169    0.687169    0.000000    0.000000    0.000000
   55.890770    0.696705    0.696705    0.696705    0.000000    0.000000    0.000000
   56.533193    0.705723    0.705723    0.705723    0.000000    0.000000    0.000000
   57.175615    0.714268    0.714268    0.714268    0.000000    0.000000    0.000000
   57.818038    0.722379    0.722379    0.722379    0.000000    0.000000    0.000000
   58.460461    0.730092    0.730092    0.730092    0.000000    0.000000    0.000000
   59.102883    0.737436    0.737436    0.737436    0.000000    0.000000    0.000000
   59.745306    0.744439    0.744439    0.744439    0.000000    0.000000    0.000000
   60.387729    0.751126    0.751126    0.751126    0.000000    0.000000    0.000000
   61.030151    0.757518    0.757518    0.757518    0.000000    0.000000    0.000000
   61.672574    0.763636    0.763636    0.763636    0.000000    0.000000    0.000000
   62.314997    0.769496    0.769496    0.769496    0.000000    0.000000    0.000000
   62.957419    0.775116    0.775116    0.775116    0.000000    0.000000    0.000000
   63.599842    0.780510    0.780510    0.780510    0.000000    0.000000    0.000000

 The outermost node in the dielectric function lies at epsilon=  41.6

volume of typ            1:    81.4 %

total charge

# of ion     s       p       d       tot
  1        0.479   0.487   3.530   4.495

orbital moment (x)

[...]

orbital moment (y)

[...]

orbital moment (z)

# of ion   s             p             d             tot
   1     0.000000E+00  0.621471E-09 -0.461442E-08 -0.399295E-08