 vasp.5.3.5 31Mar14 (build Dec 14 2018 19:18:10) complex

 INCAR:
 POTCAR:   PAW Au 04Feb1998
 POTCAR:   PAW Au 04Feb1998
   VRHFIN =Au: s1d10

   TITEL  = PAW Au 04Feb1998
   POMASS =  196.966; ZVAL   =   11.000    mass and valenz
   ENMAX  =  229.869; ENMIN  =  172.402 eV
   QCUT   =   -4.110; QGAM   =    8.221    optimization parameters

   Description
     l     E      TYP  RCUT    TYP  RCUT
     2   .000     23  2.500
     2   .000     23  2.500
     0   .000     23  2.500
     0   .000     23  2.500
     1  -.200     23  2.500
     1   .000     23  2.500
     3   .000      7   .000

 PAW Au 04Feb1998                       :

 POSCAR: Au bulk FCC
  positions in direct lattice
  velocities in cartesian coordinates
 exchange correlation table for  LEXCH =        2
   RHO(1)=    0.500       N(1)  =     2000
   RHO(2)=  100.500       N(2)  =     4000

 ion  position               nearest neighbor table
   1  0.000  0.000  0.000-

  LATTYP: Found a face centered cubic cell.
 ALAT       =     4.0782000000

  Lattice vectors:

 A1 = (   0.0000000000,   2.0391000000,   2.0391000000)
 A2 = (   2.0391000000,   0.0000000000,   2.0391000000)
 A3 = (   2.0391000000,   2.0391000000,   0.0000000000)

Analysis of symmetry for initial positions (statically):
 Subroutine PRICEL returns:
 Original cell was already a primitive cell.

 Routine SETGRP: Setting up the symmetry group for a
 face centered cubic supercell.

 Subroutine GETGRP returns: Found 48 space group operations
 (whereof 48 operations were pure point group operations)
 out of a pool of 48 trial point group operations.

The static configuration has the point symmetry O_h .

Analysis of symmetry for dynamics (positions and initial velocities):
 Subroutine PRICEL returns:
 Original cell was already a primitive cell.

 Routine SETGRP: Setting up the symmetry group for a
 face centered cubic supercell.

 Subroutine GETGRP returns: Found 48 space group operations
 (whereof 48 operations were pure point group operations)
 out of a pool of 48 trial point group operations.

The dynamic configuration has the point symmetry O_h .

 KPOINTS: 20X20X20

Automatic generation of k-mesh.
Space group operators:
 irot       det(A)        alpha          n_x          n_y          n_z        tau_x        tau_y        tau_z
    1     1.000000     0.000000     1.000000     0.000000     0.000000     0.000000     0.000000     0.000000
    2    -1.000000     0.000000     1.000000     0.000000     0.000000     0.000000     0.000000     0.000000
    3     1.000000   120.000000    -0.577350    -0.577350    -0.577350     0.000000     0.000000     0.000000
    4    -1.000000   120.000000    -0.577350    -0.577350    -0.577350     0.000000     0.000000     0.000000
    5     1.000000   120.000000     0.577350     0.577350     0.577350     0.000000     0.000000     0.000000
    6    -1.000000   120.000000     0.577350     0.577350     0.577350     0.000000     0.000000     0.000000
    7     1.000000    90.000000     0.000000     0.000000    -1.000000     0.000000     0.000000     0.000000
    8    -1.000000    90.000000     0.000000     0.000000    -1.000000     0.000000     0.000000     0.000000
    9     1.000000   180.000000     0.000000     0.707107     0.707107     0.000000     0.000000     0.000000
   10    -1.000000   180.000000     0.000000     0.707107     0.707107     0.000000     0.000000     0.000000
   11     1.000000    90.000000     0.000000     1.000000     0.000000     0.000000     0.000000     0.000000
   12    -1.000000    90.000000     0.000000     1.000000     0.000000     0.000000     0.000000     0.000000
   13     1.000000   180.000000     0.000000     0.000000     1.000000     0.000000     0.000000     0.000000
   14    -1.000000   180.000000     0.000000     0.000000     1.000000     0.000000     0.000000     0.000000
   15     1.000000   120.000000    -0.577350     0.577350     0.577350     0.000000     0.000000     0.000000
   16    -1.000000   120.000000    -0.577350     0.577350     0.577350     0.000000     0.000000     0.000000
   17     1.000000   120.000000    -0.577350     0.577350    -0.577350     0.000000     0.000000     0.000000
   18    -1.000000   120.000000    -0.577350     0.577350    -0.577350     0.000000     0.000000     0.000000
   19     1.000000    90.000000     0.000000     0.000000     1.000000     0.000000     0.000000     0.000000
   20    -1.000000    90.000000     0.000000     0.000000     1.000000     0.000000     0.000000     0.000000
   21     1.000000    90.000000    -1.000000     0.000000     0.000000     0.000000     0.000000     0.000000
   22    -1.000000    90.000000    -1.000000     0.000000     0.000000     0.000000     0.000000     0.000000
   23     1.000000   180.000000     0.707107     0.000000     0.707107     0.000000     0.000000     0.000000
   24    -1.000000   180.000000     0.707107     0.000000     0.707107     0.000000     0.000000     0.000000
   25     1.000000   120.000000     0.577350    -0.577350     0.577350     0.000000     0.000000     0.000000
   26    -1.000000   120.000000     0.577350    -0.577350     0.577350     0.000000     0.000000     0.000000
   27     1.000000   120.000000    -0.577350    -0.577350     0.577350     0.000000     0.000000     0.000000
   28    -1.000000   120.000000    -0.577350    -0.577350     0.577350     0.000000     0.000000     0.000000
   29     1.000000   180.000000     1.000000     0.000000     0.000000     0.000000     0.000000     0.000000
   30    -1.000000   180.000000     1.000000     0.000000     0.000000     0.000000     0.000000     0.000000
   31     1.000000    90.000000     0.000000    -1.000000     0.000000     0.000000     0.000000     0.000000
   32    -1.000000    90.000000     0.000000    -1.000000     0.000000     0.000000     0.000000     0.000000
   33     1.000000   180.000000     0.707107     0.707107     0.000000     0.000000     0.000000     0.000000
   34    -1.000000   180.000000     0.707107     0.707107     0.000000     0.000000     0.000000     0.000000
   35     1.000000    90.000000     1.000000     0.000000     0.000000     0.000000     0.000000     0.000000
   36    -1.000000    90.000000     1.000000     0.000000     0.000000     0.000000     0.000000     0.000000
   37     1.000000   120.000000     0.577350    -0.577350    -0.577350     0.000000     0.000000     0.000000
   38    -1.000000   120.000000     0.577350    -0.577350    -0.577350     0.000000     0.000000     0.000000
   39     1.000000   180.000000     0.000000     1.000000     0.000000     0.000000     0.000000     0.000000
   40    -1.000000   180.000000     0.000000     1.000000     0.000000     0.000000     0.000000     0.000000
   41     1.000000   120.000000     0.577350     0.577350    -0.577350     0.000000     0.000000     0.000000
   42    -1.000000   120.000000     0.577350     0.577350    -0.577350     0.000000     0.000000     0.000000
   43     1.000000   180.000000     0.000000    -0.707107     0.707107     0.000000     0.000000     0.000000
   44    -1.000000   180.000000     0.000000    -0.707107     0.707107     0.000000     0.000000     0.000000
   45     1.000000   180.000000     0.707107    -0.707107     0.000000     0.000000     0.000000     0.000000
   46    -1.000000   180.000000     0.707107    -0.707107     0.000000     0.000000     0.000000     0.000000
   47     1.000000   180.000000     0.707107     0.000000    -0.707107     0.000000     0.000000     0.000000
   48    -1.000000   180.000000     0.707107     0.000000    -0.707107     0.000000     0.000000     0.000000

 Subroutine IBZKPT returns following result:

 Found    770 irreducible k-points:

 Following reciprocal coordinates:
            Coordinates               Weight
  0.025000  0.025000  0.025000     96.000000
  0.075000  0.025000  0.025000    288.000000
  0.125000  0.025000  0.025000    288.000000
  0.175000  0.025000  0.025000    288.000000
  0.225000  0.025000  0.025000    288.000000
  0.275000  0.025000  0.025000    288.000000
  0.325000  0.025000  0.025000    288.000000
  0.375000  0.025000  0.025000    288.000000
  0.425000  0.025000  0.025000    288.000000
  0.475000  0.025000  0.025000    288.000000
 -0.475000  0.025000  0.025000    288.000000
 -0.425000  0.025000  0.025000    288.000000
 -0.375000  0.025000  0.025000    288.000000
 -0.325000  0.025000  0.025000    288.000000
 -0.275000  0.025000  0.025000    288.000000
 -0.225000  0.025000  0.025000    288.000000
 -0.175000  0.025000  0.025000    288.000000
 -0.125000  0.025000  0.025000    288.000000
 -0.075000  0.025000  0.025000    288.000000
 -0.025000  0.025000  0.025000    288.000000
  0.075000  0.075000  0.025000    288.000000
  0.125000  0.075000  0.025000    576.000000
  0.175000  0.075000  0.025000    576.000000
  0.225000  0.075000  0.025000    576.000000
  0.275000  0.075000  0.025000    576.000000
  0.325000  0.075000  0.025000    576.000000
  0.375000  0.075000  0.025000    576.000000
  0.425000  0.075000  0.025000    576.000000
  0.475000  0.075000  0.025000    576.000000
 -0.475000  0.075000  0.025000    576.000000
 -0.425000  0.075000  0.025000    576.000000
 -0.375000  0.075000  0.025000    576.000000
 -0.325000  0.075000  0.025000    576.000000
 -0.275000  0.075000  0.025000    576.000000
 -0.225000  0.075000  0.025000    576.000000
 -0.175000  0.075000  0.025000    576.000000
 -0.125000  0.075000  0.025000    576.000000
 -0.075000  0.075000  0.025000    576.000000
 -0.025000  0.075000  0.025000    576.000000
  0.125000  0.125000  0.025000    288.000000
  0.175000  0.125000  0.025000    576.000000
  0.225000  0.125000  0.025000    576.000000
  0.275000  0.125000  0.025000    576.000000
  0.325000  0.125000  0.025000    576.000000
  0.375000  0.125000  0.025000    576.000000
  0.425000  0.125000  0.025000    576.000000
  0.475000  0.125000  0.025000    576.000000
 -0.475000  0.125000  0.025000    576.000000
 -0.425000  0.125000  0.025000    576.000000
 -0.375000  0.125000  0.025000    576.000000
 -0.325000  0.125000  0.025000    576.000000
 -0.275000  0.125000  0.025000    576.000000
 -0.225000  0.125000  0.025000    576.000000
 -0.175000  0.125000  0.025000    576.000000
 -0.125000  0.125000  0.025000    576.000000
 -0.075000  0.125000  0.025000    576.000000
 -0.025000  0.125000  0.025000    576.000000
  0.175000  0.175000  0.025000    288.000000
  0.225000  0.175000  0.025000    576.000000
  0.275000  0.175000  0.025000    576.000000
[...]
 -0.425000  0.475000  0.375000    576.000000
 -0.375000  0.475000  0.375000    576.000000
 -0.475000 -0.475000  0.375000    288.000000
 -0.425000 -0.475000  0.375000    576.000000
 -0.425000 -0.425000  0.375000    288.000000
  0.425000  0.425000  0.425000     96.000000
  0.475000  0.425000  0.425000    288.000000
 -0.475000  0.425000  0.425000    288.000000
 -0.425000  0.425000  0.425000    288.000000
  0.475000  0.475000  0.425000    288.000000
 -0.475000  0.475000  0.425000    576.000000
 -0.425000  0.475000  0.425000    576.000000
 -0.475000 -0.475000  0.425000    288.000000
  0.475000  0.475000  0.475000     96.000000
 -0.475000  0.475000  0.475000    288.000000

 Following cartesian coordinates:
            Coordinates               Weight
[...]
z     0.0000   -0.0000   -0.0000   -0.0000    0.0000   -0.0000

------------------------ aborting loop because EDIFF is reached ----------------------------------------

  FORCE on cell =-STRESS in cart. coord.  units (eV):
  Direction    XX          YY          ZZ          XY          YZ          ZX
  Alpha Z   108.38556   108.38556   108.38556
  Ewald    -326.47352  -326.47352  -326.47352     0.00000     0.00000     0.00000
  Hartree    37.00738    37.00738    37.00738    -0.00000    -0.00000    -0.00000
  E(xc)     -49.05875   -49.05875   -49.05875     0.00000     0.00000     0.00000
  Local      82.31115    82.31115    82.31115     0.00011     0.00011     0.00011
  n-local   -49.62177   -46.47930   -50.02838     0.75316    -0.85037    -0.00184
  augment    42.46923    42.46923    42.46923    -0.00002    -0.00002    -0.00002
  Kinetic   153.18273   152.30275   154.78221    -0.25786     0.15285    -0.00883
  Fock        0.00000     0.00000     0.00000     0.00000     0.00000     0.00000
  Total      -0.64620    -0.64620    -0.64620     0.00000    -0.00000     0.00000
  in kB     -61.05686   -61.05686   -61.05686     0.00000    -0.00000     0.00000

 VOLUME and BASIS-vectors are now :
  energy-cutoff  :      229.87
  volume of cell :       16.96
      direct lattice vectors                 reciprocal lattice vectors
     0.000000000  2.039100000  2.039100000    -0.245206218  0.245206218  0.245206218
     2.039100000  0.000000000  2.039100000     0.245206218 -0.245206218  0.245206218
     2.039100000  2.039100000  0.000000000     0.245206218  0.245206218 -0.245206218

  length of vectors
     2.883722875  2.883722875  2.883722875     0.424709629  0.424709629  0.424709629

 FORCES acting on ions
    electron-ion (+dipol)            ewald-force                    non-local-force                 convergence-correction
   0.188E-13 0.214E-13 0.195E-13   0.131E-14 -.670E-15 0.188E-14   0.496E-23 -.165E-23 0.000E+00   -.472E-13 -.543E-13 -.475E-13
   0.188E-13 0.214E-13 0.195E-13   0.131E-14 -.670E-15 0.188E-14   0.496E-23 -.165E-23 0.000E+00   -.472E-13 -.543E-13 -.475E-13

 POSITION                                       TOTAL-FORCE (eV/Angst)
      0.00000      0.00000      0.00000         0.000000      0.000000     -0.000000
    total drift:                               -0.000000     -0.000000     -0.000000

  FREE ENERGIE OF THE ION-ELECTRON SYSTEM (eV)
  free  energy   TOTEN  =        -4.38927361 eV

  energy  without entropy=       -4.38936236  energy(sigma->0) =       -4.38930319

 writing wavefunctions

 plasma frequency squared (from intraband transitions)
      79.306       0.000       0.000
       0.000      79.306       0.000
       0.000       0.000      79.306

 electrical conductivity sigma (Mega S m-1) (frequency dependency in vasprun.xml)
       0.162       0.000      -0.000
      -0.000       0.162      -0.000
       0.000      -0.000       0.162

 plasma frequency squared (from intraband transitions)

 plasma frequency squared (from interband transitions, int dw w eps(2)(w)
     388.416       0.000      -0.000
       0.000     388.416      -0.000
      -0.000      -0.000     388.416
 plasma frequency squared  (valence only):     894.479

  frequency dependent IMAGINARY DIELECTRIC FUNCTION (independent particle, no local field effects)
     E(ev)      X         Y         Z        XY        YZ        ZX
    0.000000    0.000000    0.000000    0.000000    0.000000    0.000000    0.000000
    0.363013    0.044096    0.044096    0.044096   -0.000000   -0.000000    0.000000
    0.726026    0.099484    0.099484    0.099484   -0.000000   -0.000000    0.000000
    1.089040    0.188132    0.188132    0.188132   -0.000000   -0.000000    0.000000
    1.452053    0.354438    0.354438    0.354438   -0.000000   -0.000000   -0.000000
    1.815066    1.793485    1.793485    1.793485   -0.000000   -0.000000   -0.000000
    2.178079    6.346921    6.346921    6.346921   -0.000000   -0.000000   -0.000000
    2.541093    7.778361    7.778361    7.778361    0.000000   -0.000000    0.000000
    2.904106    7.913461    7.913461    7.913461    0.000000    0.000000    0.000000
    3.267119    7.774605    7.774605    7.774605    0.000000    0.000000    0.000000
    3.630132    7.040673    7.040673    7.040673    0.000000    0.000000   -0.000000
    3.993146    6.685230    6.685230    6.685230   -0.000000    0.000000   -0.000000
    4.356159    5.259301    5.259301    5.259301   -0.000000    0.000000   -0.000000
    4.719172    4.614268    4.614268    4.614268   -0.000000   -0.000000    0.000000
    5.082185    4.454705    4.454705    4.454705    0.000000   -0.000000   -0.000000
    5.445199    4.284612    4.284612    4.284612    0.000000    0.000000    0.000000
    5.808212    4.188812    4.188812    4.188812    0.000000    0.000000    0.000000
    6.171225    4.449107    4.449107    4.449107    0.000000    0.000000   -0.000000
    6.534238    5.181386    5.181386    5.181386    0.000000   -0.000000   -0.000000
    6.897251    5.224771    5.224771    5.224771    0.000000   -0.000000    0.000000
    7.260265    5.359744    5.359744    5.359744   -0.000000   -0.000000   -0.000000
    7.623278    5.206001    5.206001    5.206001   -0.000000   -0.000000   -0.000000
    7.986291    4.700777    4.700777    4.700777   -0.000000    0.000000    0.000000
    8.349304    4.338125    4.338125    4.338125    0.000000    0.000000    0.000000
    8.712318    4.225621    4.225621    4.225621    0.000000    0.000000   -0.000000
    9.075331    3.492404    3.492404    3.492404    0.000000   -0.000000   -0.000000
    9.438344    3.170070    3.170070    3.170070   -0.000000   -0.000000   -0.000000
    9.801357    2.669586    2.669586    2.669586    0.000000    0.000000   -0.000000
   10.164371    2.438481    2.438481    2.438481    0.000000    0.000000   -0.000000
   10.527384    2.432864    2.432864    2.432864    0.000000    0.000000    0.000000
   10.890397    2.361146    2.361146    2.361146   -0.000000    0.000000   -0.000000
   11.253410    2.317204    2.317204    2.317204    0.000000   -0.000000   -0.000000
   11.616423    2.448570    2.448570    2.448570   -0.000000    0.000000   -0.000000
   11.979437    2.642223    2.642223    2.642223    0.000000    0.000000   -0.000000
   12.342450    2.740600    2.740600    2.740600   -0.000000   -0.000000   -0.000000
   12.705463    2.609003    2.609003    2.609003   -0.000000   -0.000000   -0.000000
   13.068476    2.613957    2.613957    2.613957    0.000000   -0.000000   -0.000000
   13.431490    2.386586    2.386586    2.386586    0.000000    0.000000   -0.000000
   13.794503    2.254899    2.254899    2.254899   -0.000000    0.000000    0.000000
   14.157516    2.162356    2.162356    2.162356   -0.000000   -0.000000   -0.000000
   14.520529    1.981943    1.981943    1.981943    0.000000    0.000000    0.000000
   14.883543    2.083111    2.083111    2.083111    0.000000   -0.000000    0.000000
   15.246556    1.789853    1.789853    1.789853    0.000000    0.000000   -0.000000
   15.609569    1.741352    1.741352    1.741352    0.000000    0.000000    0.000000
   15.972582    1.957471    1.957471    1.957471    0.000000    0.000000   -0.000000
   16.335596    1.593864    1.593864    1.593864    0.000000    0.000000   -0.000000
   16.698609    1.759325    1.759325    1.759325   -0.000000   -0.000000   -0.000000
   17.061622    1.724469    1.724469    1.724469   -0.000000   -0.000000   -0.000000
   17.424635    1.486564    1.486564    1.486564    0.000000   -0.000000   -0.000000
   17.787648    1.563834    1.563834    1.563834   -0.000000   -0.000000    0.000000
   18.150662    1.415283    1.415283    1.415283    0.000000   -0.000000    0.000000
   18.513675    1.411586    1.411586    1.411586    0.000000   -0.000000   -0.000000
   18.876688    1.474614    1.474614    1.474614   -0.000000   -0.000000   -0.000000
   19.239701    1.881333    1.881333    1.881333   -0.000000   -0.000000   -0.000000
   19.602715    2.396993    2.396993    2.396993   -0.000000   -0.000000    0.000000
   19.965728    1.972301    1.972301    1.972301   -0.000000    0.000000   -0.000000
   20.328741    2.085606    2.085606    2.085606   -0.000000    0.000000    0.000000
   20.691754    2.055252    2.055252    2.055252   -0.000000   -0.000000    0.000000
   21.054768    1.283322    1.283322    1.283322    0.000000   -0.000000    0.000000
   21.417781    1.005213    1.005213    1.005213    0.000000   -0.000000    0.000000
[...]
   30.856125    0.004780    0.004780    0.004780    0.000000    0.000000   -0.000000
   31.219138    0.004519    0.004519    0.004519    0.000000    0.000000   -0.000000
   31.582151    0.004280    0.004280    0.004280    0.000000    0.000000   -0.000000
   31.945165    0.004059    0.004059    0.004059    0.000000    0.000000   -0.000000
   32.308178    0.003856    0.003856    0.003856    0.000000    0.000000   -0.000000
   32.671191    0.003668    0.003668    0.003668    0.000000    0.000000   -0.000000
   33.034204    0.003493    0.003493    0.003493    0.000000    0.000000   -0.000000
   33.397218    0.003331    0.003331    0.003331    0.000000    0.000000   -0.000000
   33.760231    0.003179    0.003179    0.003179    0.000000    0.000000   -0.000000
   34.123244    0.003038    0.003038    0.003038    0.000000    0.000000   -0.000000
   34.486257    0.002906    0.002906    0.002906    0.000000   -0.000000   -0.000000
   34.849270    0.002783    0.002783    0.002783    0.000000   -0.000000   -0.000000
   35.212284    0.002667    0.002667    0.002667    0.000000   -0.000000   -0.000000
   35.575297    0.002558    0.002558    0.002558    0.000000   -0.000000   -0.000000
   35.938310    0.002455    0.002455    0.002455    0.000000   -0.000000   -0.000000

  frequency dependent      REAL DIELECTRIC FUNCTION (independent particle, no local field effects)
     E(ev)      X         Y         Z        XY        YZ        ZX
    0.000000    8.350870    8.350870    8.350870   -0.000000   -0.000000    0.000000
    0.363013    8.428943    8.428943    8.428943   -0.000000   -0.000000    0.000000
    0.726026    8.682106    8.682106    8.682106   -0.000000   -0.000000    0.000000
    1.089040    9.182983    9.182983    9.182983   -0.000000   -0.000000    0.000000
    1.452053   10.154552   10.154552   10.154552   -0.000000   -0.000000    0.000000
    1.815066   12.520873   12.520873   12.520873   -0.000000   -0.000000    0.000000
    2.178079   12.439607   12.439607   12.439607   -0.000000    0.000000    0.000000
    2.541093    8.360561    8.360561    8.360561    0.000000    0.000000    0.000000
    2.904106    6.595941    6.595941    6.595941    0.000000    0.000000   -0.000000
    3.267119    5.842098    5.842098    5.842098   -0.000000   -0.000000   -0.000000
    3.630132    3.636125    3.636125    3.636125   -0.000000    0.000000   -0.000000
    3.993146    3.037356    3.037356    3.037356   -0.000000   -0.000000   -0.000000
    4.356159    2.789341    2.789341    2.789341   -0.000000   -0.000000    0.000000
    4.719172    2.632051    2.632051    2.632051    0.000000    0.000000   -0.000000
    5.082185    2.646536    2.646536    2.646536    0.000000   -0.000000    0.000000
    5.445199    3.050165    3.050165    3.050165   -0.000000    0.000000   -0.000000
    5.808212    2.940034    2.940034    2.940034   -0.000000   -0.000000   -0.000000
    6.171225    3.204185    3.204185    3.204185   -0.000000   -0.000000   -0.000000
    6.534238    3.105977    3.105977    3.105977    0.000000   -0.000000    0.000000
    6.897251    2.311251    2.311251    2.311251   -0.000000   -0.000000   -0.000000
    7.260265    1.936329    1.936329    1.936329   -0.000000   -0.000000   -0.000000
    7.623278    1.133484    1.133484    1.133484    0.000000    0.000000    0.000000
    7.986291    0.863996    0.863996    0.863996    0.000000   -0.000000    0.000000
    8.349304    0.153538    0.153538    0.153538    0.000000   -0.000000   -0.000000
    8.712318    0.258696    0.258696    0.258696    0.000000   -0.000000    0.000000
    9.075331   -0.166110   -0.166110   -0.166110   -0.000000    0.000000   -0.000000
    9.438344    0.027918    0.027918    0.027918    0.000000    0.000000   -0.000000
    9.801357    0.005929    0.005929    0.005929    0.000000    0.000000   -0.000000
   10.164371    0.230026    0.230026    0.230026   -0.000000   -0.000000    0.000000
   10.527384    0.538477    0.538477    0.538477   -0.000000   -0.000000    0.000000
   10.890397    0.582647    0.582647    0.582647    0.000000   -0.000000   -0.000000
   11.253410    0.729333    0.729333    0.729333    0.000000   -0.000000   -0.000000
   11.616423    0.918494    0.918494    0.918494   -0.000000   -0.000000    0.000000
   11.979437    0.774599    0.774599    0.774599    0.000000   -0.000000   -0.000000
   12.342450    0.543275    0.543275    0.543275   -0.000000   -0.000000    0.000000
   12.705463    0.465455    0.465455    0.465455    0.000000   -0.000000   -0.000000
   13.068476    0.250452    0.250452    0.250452    0.000000    0.000000    0.000000
   13.431490    0.149675    0.149675    0.149675    0.000000    0.000000    0.000000
   13.794503    0.152251    0.152251    0.152251    0.000000    0.000000   -0.000000
   14.157516    0.002327    0.002327    0.002327    0.000000   -0.000000    0.000000
   14.520529    0.155247    0.155247    0.155247    0.000000    0.000000    0.000000
   14.883543    0.100466    0.100466    0.100466   -0.000000   -0.000000   -0.000000
   15.246556   -0.014708   -0.014708   -0.014708    0.000000    0.000000   -0.000000
   15.609569    0.215794    0.215794    0.215794   -0.000000   -0.000000   -0.000000
   15.972582    0.093250    0.093250    0.093250   -0.000000   -0.000000   -0.000000
   16.335596    0.129778    0.129778    0.129778   -0.000000   -0.000000   -0.000000
   16.698609    0.122365    0.122365    0.122365   -0.000000   -0.000000   -0.000000
   17.061622    0.068419    0.068419    0.068419    0.000000   -0.000000    0.000000
   17.424635   -0.006151   -0.006151   -0.006151   -0.000000   -0.000000    0.000000
   17.787648    0.179576    0.179576    0.179576   -0.000000   -0.000000    0.000000
   18.150662    0.074119    0.074119    0.074119   -0.000000    0.000000   -0.000000
   18.513675    0.270643    0.270643    0.270643   -0.000000   -0.000000    0.000000
   18.876688    0.425051    0.425051    0.425051   -0.000000    0.000000   -0.000000
   19.239701    0.632120    0.632120    0.632120   -0.000000    0.000000   -0.000000
   19.602715    0.036512    0.036512    0.036512   -0.000000    0.000000   -0.000000
   19.965728   -0.345991   -0.345991   -0.345991   -0.000000   -0.000000   -0.000000
   20.328741   -0.475177   -0.475177   -0.475177   -0.000000   -0.000000    0.000000
   20.691754   -0.900307   -0.900307   -0.900307    0.000000    0.000000   -0.000000
   21.054768   -1.358111   -1.358111   -1.358111   -0.000000    0.000000    0.000000
   21.417781   -1.025089   -1.025089   -1.025089   -0.000000    0.000000   -0.000000
[...]
   30.856125    0.465741    0.465741    0.465741   -0.000000    0.000000    0.000000
   31.219138    0.482611    0.482611    0.482611   -0.000000    0.000000    0.000000
   31.582151    0.498573    0.498573    0.498573   -0.000000    0.000000    0.000000
   31.945165    0.513701    0.513701    0.513701   -0.000000    0.000000    0.000000
   32.308178    0.528060    0.528060    0.528060   -0.000000    0.000000    0.000000
   32.671191    0.541710    0.541710    0.541710   -0.000000    0.000000    0.000000
   33.034204    0.554701    0.554701    0.554701   -0.000000    0.000000    0.000000
   33.397218    0.567082    0.567082    0.567082   -0.000000    0.000000    0.000000
   33.760231    0.578894    0.578894    0.578894   -0.000000    0.000000    0.000000
   34.123244    0.590176    0.590176    0.590176   -0.000000    0.000000    0.000000
   34.486257    0.600963    0.600963    0.600963   -0.000000    0.000000    0.000000
   34.849270    0.611286    0.611286    0.611286   -0.000000    0.000000    0.000000
   35.212284    0.621174    0.621174    0.621174   -0.000000    0.000000    0.000000
   35.575297    0.630654    0.630654    0.630654   -0.000000    0.000000    0.000000
   35.938310    0.639750    0.639750    0.639750   -0.000000    0.000000    0.000000

 The outermost node in the dielectric function lies at epsilon=  25.5

volume of typ            1:    83.9 %

total charge

# of ion     s       p       d       tot
  1        0.594   0.455   8.862   9.910

orbital moment (x)

[...]

orbital moment (y)

[...]

orbital moment (z)

# of ion   s             p             d             tot
   1     0.000000E+00 -0.313312E-08 -0.205289E-08 -0.518600E-08