 vasp.5.4.4.18Apr17-6-g9f103f2a35 (build May 20 2018 16:52:39) complex

 executed on             LinuxIFC date 2022.10.21  20:54:51

 INCAR:
 POTCAR:    PAW Si
 POTCAR:    PAW Si
   VRHFIN =Si: s2p2

   TITEL  = PAW Si
   POMASS =   28.085; ZVAL   =    4.000    mass and valenz
   ENMAX  =  245.435; ENMIN  =  184.076 eV
   QCUT   =   -4.247; QGAM   =    8.494    optimization parameters

   Description
     l     E      TYP  RCUT    TYP  RCUT
     0   .000     23  1.900
     0   .000     23  1.900
     1   .000     23  1.900
     1   .000     23  1.900
     2   .000      7  1.900

  PAW Si                                :

 POSCAR: Si
  positions in direct lattice
  velocities in cartesian coordinates
 exchange correlation table for  LEXCH =        7
   RHO(1)=    0.500       N(1)  =     2000
   RHO(2)=  100.500       N(2)  =     4000

 ion  position               nearest neighbor table
   1  0.000  0.000  0.000-   2 1.69   2 1.69   2 1.69   2 1.69
   2  0.250  0.250  0.250-   1 1.69   1 1.69   1 1.69   1 1.69

  LATTYP: Found a face centered cubic cell.
 ALAT       =     3.9000000000

  Lattice vectors:

 A1 = (   1.9500000000,   1.9500000000,   0.0000000000)
 A2 = (   0.0000000000,   1.9500000000,   1.9500000000)
 A3 = (   1.9500000000,   0.0000000000,   1.9500000000)

Analysis of symmetry for initial positions (statically):
 Subroutine PRICEL returns:
 Original cell was already a primitive cell.

 Routine SETGRP: Setting up the symmetry group for a
 face centered cubic supercell.

 Subroutine GETGRP returns: Found 48 space group operations
 (whereof 24 operations were pure point group operations)
 out of a pool of 48 trial point group operations.

The static configuration has the point symmetry T_d .
 The point group associated with its full space group is O_h .

Analysis of symmetry for dynamics (positions and initial velocities):
 Subroutine PRICEL returns:
 Original cell was already a primitive cell.

 Routine SETGRP: Setting up the symmetry group for a
 face centered cubic supercell.

 Subroutine GETGRP returns: Found 48 space group operations
 (whereof 24 operations were pure point group operations)
 out of a pool of 48 trial point group operations.

The dynamic configuration has the point symmetry T_d .
 The point group associated with its full space group is O_h .

 Subroutine INISYM returns: Found 48 space group operations
 (whereof 24 operations are pure point group operations),
 and found     1 'primitive' translations

 KPOINTS: 10x10x10

Automatic generation of k-mesh.
Space group operators:
 irot       det(A)        alpha          n_x          n_y          n_z        tau_x        tau_y        tau_z
    1     1.000000     0.000000     1.000000     0.000000     0.000000     0.000000     0.000000     0.000000
    2     1.000000   120.000000    -0.577350    -0.577350    -0.577350     0.000000     0.000000     0.000000
    3     1.000000   120.000000     0.577350     0.577350     0.577350     0.000000     0.000000     0.000000
    4    -1.000000    90.000000     0.000000    -1.000000     0.000000     0.000000     0.000000     0.000000
    5    -1.000000   180.000000     0.707107     0.707107     0.000000     0.000000     0.000000     0.000000
    6    -1.000000    90.000000     1.000000     0.000000     0.000000     0.000000     0.000000     0.000000
    7     1.000000   180.000000     0.000000     1.000000     0.000000     0.000000     0.000000     0.000000
    8     1.000000   120.000000     0.577350     0.577350    -0.577350     0.000000     0.000000     0.000000
    9     1.000000   120.000000     0.577350    -0.577350    -0.577350     0.000000     0.000000     0.000000
   10    -1.000000    90.000000     0.000000     1.000000     0.000000     0.000000     0.000000     0.000000
   11    -1.000000    90.000000     0.000000     0.000000    -1.000000     0.000000     0.000000     0.000000
   12    -1.000000   180.000000     0.000000     0.707107     0.707107     0.000000     0.000000     0.000000
   13     1.000000   120.000000    -0.577350     0.577350     0.577350     0.000000     0.000000     0.000000
   14     1.000000   120.000000    -0.577350     0.577350    -0.577350     0.000000     0.000000     0.000000
   15     1.000000   179.999999     0.000000     0.000000     1.000000     0.000000     0.000000     0.000000
   16    -1.000000    90.000000    -1.000000     0.000000     0.000000     0.000000     0.000000     0.000000
   17    -1.000000   180.000000     0.707107     0.000000     0.707107     0.000000     0.000000     0.000000
   18    -1.000000    90.000000     0.000000     0.000000     1.000000     0.000000     0.000000     0.000000
   19     1.000000   120.000000    -0.577350    -0.577350     0.577350     0.000000     0.000000     0.000000
   20     1.000000   180.000000     1.000000     0.000000     0.000000     0.000000     0.000000     0.000000
   21     1.000000   120.000000     0.577350    -0.577350     0.577350     0.000000     0.000000     0.000000
   22    -1.000000   180.000000     0.707107    -0.707107     0.000000     0.000000     0.000000     0.000000
   23    -1.000000   180.000000     0.707107     0.000000    -0.707107     0.000000     0.000000     0.000000
   24    -1.000000   180.000000     0.000000    -0.707107     0.707107     0.000000     0.000000     0.000000
   25    -1.000000     0.000000     1.000000     0.000000     0.000000     0.250000     0.250000     0.250000
   26    -1.000000   120.000000    -0.577350    -0.577350    -0.577350     0.250000     0.250000     0.250000
   27    -1.000000   120.000000     0.577350     0.577350     0.577350     0.250000     0.250000     0.250000
   28     1.000000    90.000000     0.000000    -1.000000     0.000000     0.250000     0.250000     0.250000
   29     1.000000   180.000000     0.707107     0.707107     0.000000     0.250000     0.250000     0.250000
   30     1.000000    90.000000     1.000000     0.000000     0.000000     0.250000     0.250000     0.250000
   31    -1.000000   180.000000     0.000000     1.000000     0.000000     0.250000     0.250000     0.250000
   32    -1.000000   120.000000     0.577350     0.577350    -0.577350     0.250000     0.250000     0.250000
   33    -1.000000   120.000000     0.577350    -0.577350    -0.577350     0.250000     0.250000     0.250000
   34     1.000000    90.000000     0.000000     1.000000     0.000000     0.250000     0.250000     0.250000
   35     1.000000    90.000000     0.000000     0.000000    -1.000000     0.250000     0.250000     0.250000
   36     1.000000   180.000000     0.000000     0.707107     0.707107     0.250000     0.250000     0.250000
   37    -1.000000   120.000000    -0.577350     0.577350     0.577350     0.250000     0.250000     0.250000
   38    -1.000000   120.000000    -0.577350     0.577350    -0.577350     0.250000     0.250000     0.250000
   39    -1.000000   179.999999     0.000000     0.000000     1.000000     0.250000     0.250000     0.250000
   40     1.000000    90.000000    -1.000000     0.000000     0.000000     0.250000     0.250000     0.250000
   41     1.000000   180.000000     0.707107     0.000000     0.707107     0.250000     0.250000     0.250000
   42     1.000000    90.000000     0.000000     0.000000     1.000000     0.250000     0.250000     0.250000
   43    -1.000000   120.000000    -0.577350    -0.577350     0.577350     0.250000     0.250000     0.250000
   44    -1.000000   180.000000     1.000000     0.000000     0.000000     0.250000     0.250000     0.250000
   45    -1.000000   120.000000     0.577350    -0.577350     0.577350     0.250000     0.250000     0.250000
   46     1.000000   180.000000     0.707107    -0.707107     0.000000     0.250000     0.250000     0.250000
   47     1.000000   180.000000     0.707107     0.000000    -0.707107     0.250000     0.250000     0.250000
   48     1.000000   180.000000     0.000000    -0.707107     0.707107     0.250000     0.250000     0.250000

 Subroutine IBZKPT returns following result:

 Found    110 irreducible k-points:

 Following reciprocal coordinates:
            Coordinates               Weight
  0.050000  0.050000  0.050000     96.000000
  0.150000  0.050000  0.050000    288.000000
  0.250000  0.050000  0.050000    288.000000
  0.350000  0.050000  0.050000    288.000000
  0.450000  0.050000  0.050000    288.000000
 -0.450000  0.050000  0.050000    288.000000
 -0.350000  0.050000  0.050000    288.000000
 -0.250000  0.050000  0.050000    288.000000
 -0.150000  0.050000  0.050000    288.000000
 -0.050000  0.050000  0.050000    288.000000
  0.150000  0.150000  0.050000    288.000000
  0.250000  0.150000  0.050000    576.000000
  0.350000  0.150000  0.050000    576.000000
  0.450000  0.150000  0.050000    576.000000
 -0.450000  0.150000  0.050000    576.000000
 -0.350000  0.150000  0.050000    576.000000
 -0.250000  0.150000  0.050000    576.000000
 -0.150000  0.150000  0.050000    576.000000
 -0.050000  0.150000  0.050000    576.000000
  0.250000  0.250000  0.050000    288.000000
  0.350000  0.250000  0.050000    576.000000
  0.450000  0.250000  0.050000    576.000000
 -0.450000  0.250000  0.050000    576.000000
 -0.350000  0.250000  0.050000    576.000000
 -0.250000  0.250000  0.050000    576.000000
 -0.150000  0.250000  0.050000    576.000000
 -0.050000  0.250000  0.050000    576.000000
  0.350000  0.350000  0.050000    288.000000
  0.450000  0.350000  0.050000    576.000000
 -0.450000  0.350000  0.050000    576.000000
 -0.350000  0.350000  0.050000    576.000000
 -0.250000  0.350000  0.050000    576.000000
 -0.150000  0.350000  0.050000    576.000000
 -0.050000  0.350000  0.050000    576.000000
  0.450000  0.450000  0.050000    288.000000
 -0.450000  0.450000  0.050000    576.000000
 -0.350000  0.450000  0.050000    576.000000
 -0.250000  0.450000  0.050000    576.000000
 -0.150000  0.450000  0.050000    576.000000
 -0.050000  0.450000  0.050000    576.000000
 -0.450000 -0.450000  0.050000    288.000000
 -0.350000 -0.450000  0.050000    576.000000
 -0.250000 -0.450000  0.050000    576.000000
 -0.150000 -0.450000  0.050000    576.000000
 -0.350000 -0.350000  0.050000    288.000000
 -0.250000 -0.350000  0.050000    576.000000
 -0.150000 -0.350000  0.050000    576.000000
 -0.250000 -0.250000  0.050000    288.000000
 -0.150000 -0.250000  0.050000    576.000000
 -0.150000 -0.150000  0.050000    288.000000
  0.150000  0.150000  0.150000     96.000000
  0.250000  0.150000  0.150000    288.000000
  0.350000  0.150000  0.150000    288.000000
  0.450000  0.150000  0.150000    288.000000
 -0.450000  0.150000  0.150000    288.000000
 -0.350000  0.150000  0.150000    288.000000
 -0.250000  0.150000  0.150000    288.000000
 -0.150000  0.150000  0.150000    288.000000
  0.250000  0.250000  0.150000    288.000000
  0.350000  0.250000  0.150000    576.000000
[...]
 -0.350000  0.450000  0.250000    576.000000
 -0.250000  0.450000  0.250000    576.000000
 -0.450000 -0.450000  0.250000    288.000000
 -0.350000 -0.450000  0.250000    576.000000
 -0.350000 -0.350000  0.250000    288.000000
  0.350000  0.350000  0.350000     96.000000
  0.450000  0.350000  0.350000    288.000000
 -0.450000  0.350000  0.350000    288.000000
[...]
 k-point 24 :  -0.3500 0.2500 0.0500  plane waves:     128
 k-point 25 :  -0.2500 0.2500 0.0500  plane waves:     132
 k-point 26 :  -0.1500 0.2500 0.0500  plane waves:     133
 k-point 27 :  -0.0500 0.2500 0.0500  plane waves:     135
 k-point 28 :   0.3500 0.3500 0.0500  plane waves:     129
 k-point 29 :   0.4500 0.3500 0.0500  plane waves:     129
 k-point 30 :  -0.4500 0.3500 0.0500  plane waves:     127
 k-point 31 :  -0.3500 0.3500 0.0500  plane waves:     126
 k-point 32 :  -0.2500 0.3500 0.0500  plane waves:     128
 k-point 33 :  -0.1500 0.3500 0.0500  plane waves:     132
 k-point 34 :  -0.0500 0.3500 0.0500  plane waves:     134
 k-point 35 :   0.4500 0.4500 0.0500  plane waves:     125
 k-point 36 :  -0.4500 0.4500 0.0500  plane waves:     123
 k-point 37 :  -0.3500 0.4500 0.0500  plane waves:     128
 k-point 38 :  -0.2500 0.4500 0.0500  plane waves:     127
 k-point 39 :  -0.1500 0.4500 0.0500  plane waves:     126
 k-point 40 :  -0.0500 0.4500 0.0500  plane waves:     129
 k-point 41 :  -0.4500-0.4500 0.0500  plane waves:     119
 k-point 42 :  -0.3500-0.4500 0.0500  plane waves:     126
 k-point 43 :  -0.2500-0.4500 0.0500  plane waves:     127
 k-point 44 :  -0.1500-0.4500 0.0500  plane waves:     130
 k-point 45 :  -0.3500-0.3500 0.0500  plane waves:     129
 k-point 46 :  -0.2500-0.3500 0.0500  plane waves:     131
 k-point 47 :  -0.1500-0.3500 0.0500  plane waves:     135
 k-point 48 :  -0.2500-0.2500 0.0500  plane waves:     131
 k-point 49 :  -0.1500-0.2500 0.0500  plane waves:     133
 k-point 50 :  -0.1500-0.1500 0.0500  plane waves:     130
 k-point 51 :   0.1500 0.1500 0.1500  plane waves:     129
 k-point 52 :   0.2500 0.1500 0.1500  plane waves:     133
 k-point 53 :   0.3500 0.1500 0.1500  plane waves:     137
 k-point 54 :   0.4500 0.1500 0.1500  plane waves:     133
 k-point 55 :  -0.4500 0.1500 0.1500  plane waves:     127
 k-point 56 :  -0.3500 0.1500 0.1500  plane waves:     129
 k-point 57 :  -0.2500 0.1500 0.1500  plane waves:     134
 k-point 58 :  -0.1500 0.1500 0.1500  plane waves:     136
 k-point 59 :   0.2500 0.2500 0.1500  plane waves:     134
 k-point 60 :   0.3500 0.2500 0.1500  plane waves:     135
[...]
 k-point 85 :   0.4500 0.2500 0.2500  plane waves:     134
 k-point 86 :  -0.4500 0.2500 0.2500  plane waves:     130
 k-point 87 :  -0.3500 0.2500 0.2500  plane waves:     127
 k-point 88 :  -0.2500 0.2500 0.2500  plane waves:     130
 k-point 89 :   0.3500 0.3500 0.2500  plane waves:     134
 k-point 90 :   0.4500 0.3500 0.2500  plane waves:     132
 k-point 91 :  -0.4500 0.3500 0.2500  plane waves:     130
 k-point 92 :  -0.3500 0.3500 0.2500  plane waves:     126
 k-point 93 :  -0.2500 0.3500 0.2500  plane waves:     125
 k-point 94 :   0.4500 0.4500 0.2500  plane waves:     130
 k-point 95 :  -0.4500 0.4500 0.2500  plane waves:     127
 k-point 96 :  -0.3500 0.4500 0.2500  plane waves:     125
 k-point 97 :  -0.2500 0.4500 0.2500  plane waves:     124
 k-point 98 :  -0.4500-0.4500 0.2500  plane waves:     128
 k-point 99 :  -0.3500-0.4500 0.2500  plane waves:     127
 k-point ** :  -0.3500-0.3500 0.2500  plane waves:     129
 k-point ** :   0.3500 0.3500 0.3500  plane waves:     138
 k-point ** :   0.4500 0.3500 0.3500  plane waves:     131
 k-point ** :  -0.4500 0.3500 0.3500  plane waves:     129
 k-point ** :  -0.3500 0.3500 0.3500  plane waves:     127
 k-point ** :   0.4500 0.4500 0.3500  plane waves:     131
 k-point ** :  -0.4500 0.4500 0.3500  plane waves:     128
 k-point ** :  -0.3500 0.4500 0.3500  plane waves:     128
 k-point ** :  -0.4500-0.4500 0.3500  plane waves:     125
 k-point ** :   0.4500 0.4500 0.4500  plane waves:     129
 k-point ** :  -0.4500 0.4500 0.4500  plane waves:     129

 maximum and minimum number of plane-waves per node :       138      119

 maximum number of plane-waves:       138
 maximum index in each direction:
   IXMAX=    3   IYMAX=    3   IZMAX=    3
   IXMIN=   -3   IYMIN=   -3   IZMIN=   -3

 serial   3D FFT for wavefunctions
 parallel 3D FFT for charge:
    minimum data exchange during FFTs selected (reduces bandwidth)

 Broyden mixing: mesh for mixing (old mesh)
   NGX =  7   NGY =  7   NGZ =  7
  (NGX  = 24   NGY  = 24   NGZ  = 24)
  gives a total of    343 points

 initial charge density was supplied:
 charge density of overlapping atoms calculated
 number of electron       8.0000000 magnetization
 keeping initial charge density in first step

 Maximum index for augmentation-charges         3805 (set IRDMAX)

 First call to EWALD:  gamma=   0.721
 Maximum number of real-space cells 3x 3x 3
 Maximum number of reciprocal cells 3x 3x 3

--------------------------------------- Iteration      1(   1)  ---------------------------------------

 eigenvalue-minimisations  :  1920
 total energy-change (2. order) : 0.1929418E+02  (-0.2838938E+03)
 number of electron       8.0000000 magnetization
 augmentation part        8.0000000 magnetization

 Free energy of the ion-electron system (eV)
  alpha Z        PSCENC =         8.75287969
  Ewald energy   TEWEN  =      -318.23075394
  -Hartree energ DENC   =        -1.45333401
  -exchange      EXHF   =         0.00000000
  -V(xc)+E(xc)   XCENC  =       -14.42487860
  PAW double counting   =        66.48363344      -30.92422537
  entropy T*S    EENTRO =        -0.00024557
  eigenvalues    EBANDS =       102.48720998
  atomic energy  EATOM  =       206.60389906
  Solvation  Ediel_sol  =         0.00000000
  free energy    TOTEN  =        19.29418468 eV

  energy without entropy =       19.29443026  energy(sigma->0) =       19.29426654

[...]

 eigenvalue-minimisations  :  2792
 total energy-change (2. order) :-0.9032469E+01  (-0.8639594E+01)
 number of electron       8.0000000 magnetization
 augmentation part        8.0000000 magnetization

[...]

 Broyden mixing:
  rms(total) = 0.54164E+00    rms(broyden)= 0.54159E+00
  rms(prec ) = 0.16592E+01
  weight for this iteration     100.00

[...]

 eigenvalues of (default mixing * dielectric matrix)
  average eigenvalue GAMMA=   2.0365
  2.0365

[...]

 average (electrostatic) potential at core
  the test charge radii are     0.9892
  (the norm of the test charge is              1.0000)
       1 -69.7929       2 -69.7929

 E-fermi :  20.3477     XC(G=0): -13.8547     alpha+bet :-32.3861

 k-point     1 :       0.0500    0.0500    0.0500
  band No.  band energies     occupation
      1      -0.2315      2.00000
      2      20.9621     -0.00012
      3      21.5559     -0.00000
      4      21.5559     -0.00000
      5      24.3149     -0.00000
      6      24.3149     -0.00000
      7      24.5531     -0.00000
      8      28.6430      0.00000

[...]

 soft charge-density along one line, spin component           1
         0         1         2         3         4         5         6         7         8         9
 total charge-density along one line

------------------------ aborting loop because EDIFF is reached ----------------------------------------

  FORCE on cell =-STRESS in cart. coord.  units (eV):
  Direction    XX          YY          ZZ          XY          YZ          ZX
  Alpha Z     8.75288     8.75288     8.75288
  Ewald    -106.07697  -106.07697  -106.07697    -0.00000    -0.00000    -0.00000
  Hartree     1.44963     1.44963     1.44963    -0.00000    -0.00000    -0.00000
  E(xc)     -33.68624   -33.68624   -33.68624     0.00001     0.00001     0.00001
  Local     -21.10619   -21.10619   -21.10619     0.00003     0.00003     0.00003
  n-local   131.78048   125.51137   126.77207    -2.53987     0.05067     2.50078
  augment   -16.19716   -16.19716   -16.19716    -0.00006    -0.00006    -0.00006
  Kinetic    80.35355    99.50855   101.83085     2.07906    -0.10809    -1.29785
  Fock        0.00000     0.00000     0.00000     0.00000     0.00000     0.00000
  Total      55.05492    55.05492    55.05492     0.00000    -0.00000     0.00000
  in kB    5948.02606  5948.02606  5948.02606     0.00000    -0.00000     0.00000

 VOLUME and BASIS-vectors are now :
  energy-cutoff  :      245.44
  volume of cell :       14.83
      direct lattice vectors                 reciprocal lattice vectors
     1.950000000  1.950000000  0.000000000     0.256410256  0.256410256 -0.256410256
     0.000000000  1.950000000  1.950000000    -0.256410256  0.256410256  0.256410256
     1.950000000  0.000000000  1.950000000     0.256410256 -0.256410256  0.256410256

[...]

 FORCES acting on ions
    electron-ion (+dipol)            ewald-force                    non-local-force                 convergence-correction
   0.166E-05 0.166E-05 0.166E-05   0.213E-13 0.142E-13 0.187E-13   -.347E-17 0.000E+00 0.000E+00   0.896E-08 0.896E-08 0.896E-08
   -.166E-05 -.166E-05 -.166E-05   -.208E-13 -.139E-13 -.183E-13   0.347E-17 0.304E-17 0.000E+00   -.896E-08 -.896E-08 -.896E-08
   -.113E-13 -.110E-13 -.165E-13   0.525E-15 0.282E-15 0.382E-15   0.000E+00 0.304E-17 0.000E+00   0.262E-15 0.170E-16 -.178E-15

 POSITION                                       TOTAL-FORCE (eV/Angst)
      0.00000      0.00000      0.00000         0.000000     -0.000000      0.000000
      0.97500      0.97500      0.97500        -0.000000      0.000000     -0.000000
    total drift:                               -0.000000     -0.000000     -0.000000

  FREE ENERGIE OF THE ION-ELECTRON SYSTEM (eV)
  free  energy   TOTEN  =        11.42245434 eV

  energy  without entropy=       11.42059858  energy(sigma->0) =       11.42183576

[...]

 Broyden mixing:
  rms(total) = 0.93811E-03    rms(broyden)= 0.84228E-03
  rms(prec ) = 0.12210E-02
  weight for this iteration     100.00
  WARNING: grid for Broyden might be to small

[...]

 E-fermi :  -2.1521     XC(G=0):  -4.5800     alpha+bet : -2.5669

[...]

 d Force = 0.0000000E+00[ 0.000E+00, 0.000E+00]  d Energy = 0.1290352E+02-0.129E+02
 d Force = 0.0000000E+00[ 0.000E+00, 0.000E+00]  d Ewald  =-0.1815336E+03 0.182E+03

 Steepest descent step on ions:
 trial-energy change:  -12.903521  1 .order  -93.936718 -219.338401   31.464966
  (g-gl).g = 0.219E+03      g.g   = 0.219E+03  gl.gl    = 0.000E+00
 g(Force)  = 0.236E-45   g(Stress)= 0.219E+03 ortho     = 0.000E+00
 gamma     =   0.00000
 trial     =   1.00000
 opt step  =   0.87454  (harmonic =   0.87454) maximal distance =0.00000000
 next E    =   -84.488009   (d E  = -95.91046)

[...]

 d Force = 0.0000000E+00[ 0.000E+00, 0.000E+00]  d Energy = 0.1681229E+01-0.168E+01
 d Force = 0.0000000E+00[ 0.000E+00, 0.000E+00]  d Ewald  = 0.1053701E+02-0.105E+02

[...]

 E-fermi :   3.6429     XC(G=0):  -8.5062     alpha+bet : -9.3517

[...]

 Broyden mixing:
  rms(total) = 0.85000E-04    rms(broyden)= 0.71767E-04
  rms(prec ) = 0.19765E-03
  weight for this iteration     100.00
  WARNING: grid for Broyden might be to small

[...]

 d Force = 0.0000000E+00[ 0.000E+00, 0.000E+00]  d Energy =-0.1022749E+01 0.102E+01
 d Force = 0.0000000E+00[ 0.000E+00, 0.000E+00]  d Ewald  = 0.4293446E+02-0.429E+02

[...]

 d Force = 0.0000000E+00[ 0.000E+00, 0.000E+00]  d Energy = 0.3430225E-02-0.343E-02
 d Force = 0.0000000E+00[ 0.000E+00, 0.000E+00]  d Ewald  =-0.1456293E+01 0.146E+01

[...]

 eigenvalue-minimisations  :  2096
 total energy-change (2. order) : 0.6208162E-05  (-0.1545225E-05)
 number of electron       8.0000021 magnetization
 augmentation part       -0.4612267 magnetization

 Broyden mixing:
  rms(total) = 0.13250E-03    rms(broyden)= 0.13193E-03
  rms(prec ) = 0.30387E-03
  weight for this iteration     100.00

 eigenvalues of (default mixing * dielectric matrix)
  average eigenvalue GAMMA=   2.2434
  2.2434  2.2434

[...]

--------------------------------------- Iteration     10(   4)  ---------------------------------------

 eigenvalue-minimisations  :   944
 total energy-change (2. order) :-0.4523917E-06  (-0.1019282E-07)
 number of electron       8.0000021 magnetization
 augmentation part       -0.4612267 magnetization

 Free energy of the ion-electron system (eV)
  alpha Z        PSCENC =         3.18742041
  Ewald energy   TEWEN  =      -227.25055085
  -Hartree energ DENC   =       -15.12752074
  -exchange      EXHF   =         0.00000000
  -V(xc)+E(xc)   XCENC  =       -18.49613552
  PAW double counting   =        76.41212244      -41.06768189
  entropy T*S    EENTRO =         0.00035635
  eigenvalues    EBANDS =         5.08566007
  atomic energy  EATOM  =       206.60389906
  Solvation  Ediel_sol  =         0.00000000
  free energy    TOTEN  =       -10.65243066 eV

  energy without entropy =      -10.65278702  energy(sigma->0) =      -10.65254945

 average (electrostatic) potential at core
  the test charge radii are     0.9892
  (the norm of the test charge is              1.0000)
       1 -83.7334       2 -83.7334

 E-fermi :   5.7313     XC(G=0):  -9.3729     alpha+bet :-11.7936

[...]

 k-point   110 :      -0.4500    0.4500    0.4500
  band No.  band energies     occupation
      1      -3.8203      2.00000
      2      -1.1682      2.00000
      3       3.6219      2.00000
      4       4.3129      2.00000
      5       7.8612     -0.00000
      6       9.1248     -0.00000
      7       9.5298     -0.00000
      8      13.7927      0.00000

 soft charge-density along one line, spin component           1
         0         1         2         3         4         5         6         7         8         9
 total charge-density along one line

------------------------ aborting loop because EDIFF is reached ----------------------------------------

  FORCE on cell =-STRESS in cart. coord.  units (eV):
  Direction    XX          YY          ZZ          XY          YZ          ZX
  Alpha Z     3.18742     3.18742     3.18742
  Ewald     -75.75022   -75.75022   -75.75022     0.00000     0.00000    -0.00000
  Hartree     5.04244     5.04244     5.04244    -0.00000    -0.00000    -0.00000
  E(xc)     -25.36011   -25.36011   -25.36011    -0.00013    -0.00013    -0.00013
  Local     -29.77181   -29.77181   -29.77181     0.00014     0.00014     0.00014
  n-local    80.68964    75.93167    78.34064    -1.09992     0.03240     1.06628
  augment   -11.74300   -11.74300   -11.74300    -0.00017    -0.00017    -0.00017
  Kinetic    55.58506    55.01843    57.61686    -0.90967     0.03184     0.87525
  Fock        0.00000     0.00000     0.00000     0.00000     0.00000     0.00000
  Total      -0.00117    -0.00117    -0.00117     0.00000     0.00000     0.00000
  in kB      -0.04619    -0.04619    -0.04619     0.00000     0.00000     0.00000

 VOLUME and BASIS-vectors are now :
  energy-cutoff  :      245.44
  volume of cell :       40.72
      direct lattice vectors                 reciprocal lattice vectors
     2.730686319  2.730686319 -0.000000000     0.183104151  0.183104151 -0.183104151
     0.000000000  2.730686319  2.730686319    -0.183104151  0.183104151  0.183104151
     2.730686319  0.000000000  2.730686319     0.183104151 -0.183104151  0.183104151

  length of vectors
     3.861773627  3.861773627  3.861773627     0.317145693  0.317145693  0.317145693

 FORCES acting on ions
    electron-ion (+dipol)            ewald-force                    non-local-force                 convergence-correction
   -.380E-04 -.380E-04 -.380E-04   0.146E-16 0.424E-14 -.112E-14   -.694E-16 -.718E-16 -.659E-16   0.291E-07 0.291E-07 0.291E-07
   0.380E-04 0.380E-04 0.380E-04   0.560E-16 -.446E-14 0.889E-15   0.694E-16 0.679E-16 0.625E-16   -.291E-07 -.291E-07 -.291E-07
   -.174E-13 -.210E-13 -.236E-13   0.706E-16 -.224E-15 -.235E-15   0.000E+00 -.390E-17 -.347E-17   -.410E-15 -.424E-15 0.396E-15

 POSITION                                       TOTAL-FORCE (eV/Angst)
      0.00000     -0.00000      0.00000        -0.000000     -0.000000     -0.000000
      1.36534      1.36534      1.36534         0.000000      0.000000      0.000000
    total drift:                               -0.000000     -0.000000     -0.000000

  FREE ENERGIE OF THE ION-ELECTRON SYSTEM (eV)
  free  energy   TOTEN  =       -10.65243066 eV

  energy  without entropy=      -10.65278702  energy(sigma->0) =      -10.65254945

 d Force = 0.0000000E+00[ 0.000E+00, 0.000E+00]  d Energy = 0.4925601E-04-0.493E-04
 d Force = 0.0000000E+00[ 0.000E+00, 0.000E+00]  d Ewald  = 0.1482278E+00-0.148E+00

 reached required accuracy - stopping structural energy minimisation

volume of typ            1:    46.5 %

total charge

# of ion       s       p       d       tot
    1        1.035   1.509   0.123   2.666
    2        1.035   1.509   0.123   2.666
tot           2.07    3.02    0.25    5.33

orbital moment (x)

[...]

orbital moment (y)

[...]

orbital moment (z)

# of ion     s             p             d             tot
    1     0.000000E+00  0.384305E-03 -0.291617E-02 -0.253186E-02
    2     0.000000E+00 -0.384304E-03  0.291617E-02  0.253186E-02
tot        0.000000E+00  0.182367E-09  0.655660E-09  0.838027E-09