 vasp.5.4.4.18Apr17-6-g9f103f2a35 (build May 20 2018 16:52:39) complex

 executed on             LinuxIFC date 2022.11.14  01:01:26

 INCAR:
 POTCAR:   PAW_GGA Mo 08Jan2002
 POTCAR:   PAW_GGA S 21Jan2003
 POTCAR:   PAW_GGA Mo 08Jan2002
   VRHFIN =Mo: 4p5s4d

   TITEL  = PAW_GGA Mo 08Jan2002
   POMASS =   95.940; ZVAL   =    6.000    mass and valenz
   ENMAX  =  224.580; ENMIN  =  168.435 eV
   QCUT   =   -4.063; QGAM   =    8.126    optimization parameters

   Description
     l     E      TYP  RCUT    TYP  RCUT
     2   .000     23  2.500
     2   .000     23  2.500
     0   .000     23  2.600
     0  1.000     23  2.600
     1   .400     23  2.750
     1  2.000     23  2.750
     3   .000      7   .000

 POTCAR:   PAW_GGA S 21Jan2003
   VRHFIN =S : s2p4

   TITEL  = PAW_GGA S 21Jan2003
   POMASS =   32.066; ZVAL   =    6.000    mass and valenz
   ENMAX  =  280.000; ENMIN  =  194.015 eV
   QCUT   =   -4.360; QGAM   =    8.721    optimization parameters

   Description
     l     E      TYP  RCUT    TYP  RCUT
     0   .000     23  1.900
     0   .000     23  1.900
     1   .000     23  1.900
     1   .000     23  1.900
     2   .000      7  1.900

 PAW_GGA Mo 08Jan2002                   :
 PAW_GGA S 21Jan2003                    :

 POSCAR: Mo2S4
  positions in direct lattice
 exchange correlation table for  LEXCH =        7
   RHO(1)=    0.500       N(1)  =     2000
   RHO(2)=  100.500       N(2)  =     4000

 ion  position               nearest neighbor table
   1  0.333  0.667  0.250-   3 2.42   5 2.42   3 2.42   5 2.42   3 2.42   5 2.42
   2  0.667  0.333  0.750-   4 2.42   6 2.42   4 2.42   6 2.42   4 2.42   6 2.42
   3  0.667  0.333  0.355-   1 2.42   1 2.42   1 2.42
   4  0.333  0.667  0.855-   2 2.42   2 2.42   2 2.42
   5  0.667  0.333  0.145-   1 2.42   1 2.42   1 2.42
   6  0.333  0.667  0.645-   2 2.42   2 2.42   2 2.42

  LATTYP: Found a hexagonal cell.
 ALAT       =     3.1903153920
 C/A-ratio  =     4.6638034714

  Lattice vectors:

 A1 = (   3.1903160000,   0.0000000000,   0.0000000000)
 A2 = (  -1.5951580000,   2.7628940000,   0.0000000000)
 A3 = (   0.0000000000,   0.0000000000,  14.8790040000)

Analysis of symmetry for initial positions (statically):
 Subroutine PRICEL returns:
 Original cell was already a primitive cell.

 Routine SETGRP: Setting up the symmetry group for a
 hexagonal supercell.

 Subroutine GETGRP returns: Found 24 space group operations
 (whereof 12 operations were pure point group operations)
 out of a pool of 24 trial point group operations.

The static configuration has the point symmetry D_3d.
 The point group associated with its full space group is D_6h.

Analysis of symmetry for dynamics (positions and initial velocities):
 Subroutine PRICEL returns:
 Original cell was already a primitive cell.

 Routine SETGRP: Setting up the symmetry group for a
 hexagonal supercell.

 Subroutine GETGRP returns: Found 24 space group operations
 (whereof 12 operations were pure point group operations)
 out of a pool of 24 trial point group operations.

The dynamic configuration has the point symmetry D_3d.
 The point group associated with its full space group is D_6h.

 Subroutine INISYM returns: Found 24 space group operations
 (whereof 12 operations are pure point group operations),
 and found     1 'primitive' translations

 KPOINTS: Hexagonal lattice 40
  interpolating k-points between supplied coordinates
  k-points in reciprocal lattice
Space group operators:
 irot       det(A)        alpha          n_x          n_y          n_z        tau_x        tau_y        tau_z
    1     1.000000     0.000000     1.000000     0.000000     0.000000     0.000000     0.000000     0.000000
    2    -1.000000     0.000000     1.000000     0.000000     0.000000     0.000000     0.000000     0.000000
    3     1.000000   120.000000     0.000000     0.000000    -1.000000     0.000000     0.000000     0.000000
    4    -1.000000   120.000000     0.000000     0.000000    -1.000000     0.000000     0.000000     0.000000
    5     1.000000   120.000000     0.000000     0.000000     1.000000     0.000000     0.000000     0.000000
    6    -1.000000   120.000000     0.000000     0.000000     1.000000     0.000000     0.000000     0.000000
    7     1.000000   180.000000     1.000000     0.000000     0.000000     0.000000     0.000000     0.000000
    8    -1.000000   180.000000     1.000000     0.000000     0.000000     0.000000     0.000000     0.000000
    9     1.000000   180.000000     0.500000    -0.866025     0.000000     0.000000     0.000000     0.000000
   10    -1.000000   180.000000     0.500000    -0.866025     0.000000     0.000000     0.000000     0.000000
   11     1.000000   180.000000    -0.500000    -0.866025     0.000000     0.000000     0.000000     0.000000
   12    -1.000000   180.000000    -0.500000    -0.866025     0.000000     0.000000     0.000000     0.000000
   13     1.000000    60.000000     0.000000     0.000000    -1.000000     0.000001     0.000000     0.500000
   14    -1.000000    60.000000     0.000000     0.000000    -1.000000     0.000001     0.000000     0.500000
   15     1.000000   180.000000     0.000000     0.000000     1.000000     0.000000     0.000000     0.500000
   16    -1.000000   180.000000     0.000000     0.000000     1.000000     0.000000     0.000000     0.500000
   17     1.000000    60.000000     0.000000     0.000000     1.000000     0.000000     0.000000     0.500000
   18    -1.000000    60.000000     0.000000     0.000000     1.000000     0.000000     0.000000     0.500000
   19     1.000000   180.000000     0.866025    -0.500000     0.000000     0.000000     0.000000     0.500000
   20    -1.000000   180.000000     0.866025    -0.500000     0.000000     0.000000     0.000000     0.500000
   21     1.000000   180.000000     0.000000     1.000000     0.000000     0.000001     0.000000     0.500000
   22    -1.000000   180.000000     0.000000     1.000000     0.000000     0.000001     0.000000     0.500000
   23     1.000000   180.000000     0.866025     0.500000     0.000000     0.000000     0.000000     0.500000
   24    -1.000000   180.000000     0.866025     0.500000     0.000000     0.000000     0.000000     0.500000

 SYSTEM =  bulk MoS2
 POSCAR =  Mo2S4

 Startparameter for this run:
   NWRITE =      2    write-flag & timer
   PREC   = normal    normal or accurate (medium, high low for compatibility)
   ISTART =      0    job   : 0-new  1-cont  2-samecut
   ICHARG =     11    charge: 1-file 2-atom 10-const
   ISPIN  =      1    spin polarized calculation?
   LNONCOLLINEAR =      F non collinear calculations
   LSORBIT =      F    spin-orbit coupling
   INIWAV =      1    electr: 0-lowe 1-rand  2-diag
   LASPH  =      F    aspherical Exc in radial PAW
   METAGGA=      F    non-selfconsistent MetaGGA calc.

 Electronic Relaxation 1
   ENCUT  =  500.0 eV  36.75 Ry    6.06 a.u.   5.82  5.82 27.13*2*pi/ulx,y,z
   ENINI  =  500.0     initial cutoff
   ENAUG  =  345.3 eV  augmentation charge cutoff
   NELM   =     60;   NELMIN=  2; NELMDL= -5     # of ELM steps
   EDIFF  = 0.1E-05   stopping-criterion for ELM
   LREAL  =      F    real-space projection
   NLSPLINE    = F    spline interpolate recip. space projectors
   LCOMPAT=      F    compatible to vasp.4.4
   GGA_COMPAT  = T    GGA compatible to vasp.4.4-vasp.4.6
   LMAXPAW     = -100 max onsite density
   LMAXMIX     =    2 max onsite mixed and CHGCAR
   VOSKOWN=      0    Vosko Wilk Nusair interpolation
   ROPT   =    0.00000   0.00000
 Ionic relaxation
   EDIFFG = 0.1E-04   stopping-criterion for IOM
   NSW    =      0    number of steps for IOM
   NBLOCK =      1;   KBLOCK =      1    inner block; outer block
   IBRION =     -1    ionic relax: 0-MD 1-quasi-New 2-CG
   NFREE  =      0    steps in history (QN), initial steepest desc. (CG)
   ISIF   =      2    stress and relaxation
   IWAVPR =     10    prediction:  0-non 1-charg 2-wave 3-comb
   ISYM   =      2    0-nonsym 1-usesym 2-fastsym
   LCORR  =      T    Harris-Foulkes like correction to forces

   POTIM  = 0.5000    time-step for ionic-motion
   TEIN   =    0.0    initial temperature
   TEBEG  =    0.0;   TEEND  =   0.0 temperature during run
   SMASS  =  -3.00    Nose mass-parameter (am)
   estimated Nose-frequenzy (Omega)   =  0.10E-29 period in steps =****** mass=  -0.233E-27a.u.
   SCALEE = 1.0000    scale energy and forces
   NPACO  =    256;   APACO  = 16.0  distance and # of slots for P.C.
   PSTRESS=    0.0 pullay stress

  Mass of Ions in am
   POMASS =  95.94 32.07
  Ionic Valenz
   ZVAL   =   6.00  6.00
  Atomic Wigner-Seitz radii
  virtual crystal weights
   VCA    =   1.00  1.00
   NELECT =      36.0000    total number of electrons
   NUPDOWN=      -1.0000    fix difference up-down

 DOS related values:
   EMIN   =  10.00;   EMAX   =-10.00  energy-range for DOS
   EFERMI =   0.00
   ISMEAR =     0;   SIGMA  =   0.20  broadening in eV -4-tet -1-fermi 0-gaus

 Electronic relaxation 2 (details)
   IALGO  =     38    algorithm
   LDIAG  =      T    sub-space diagonalisation (order eigenvalues)
   LSUBROT=      F    optimize rotation matrix (better conditioning)
   TURBO    =      0    0=normal 1=particle mesh
   IRESTART =      0    0=no restart 2=restart with 2 vectors
   NREBOOT  =      0    no. of reboots
   NMIN     =      0    reboot dimension
   EREF     =   0.00    reference energy to select bands
   IMIX   =      4    mixing-type and parameters
     AMIX     =   0.40;   BMIX     =  1.00
     AMIX_MAG =   1.60;   BMIX_MAG =  1.00
     AMIN     =   0.10
     WC   =   100.;   INIMIX=   1;  MIXPRE=   1;  MAXMIX= -45

 Intra band minimization:
   WEIMIN = 0.0000     energy-eigenvalue tresh-hold
   EBREAK =  0.11E-07  absolut break condition
   DEPER  =   0.30     relativ break condition

   TIME   =   0.40     timestep for ELM

  volume/ion in A,a.u.               =      21.86       147.51
  Fermi-wavevector in a.u.,A,eV,Ry     =   1.063943  2.010561 15.401454  1.131975
  Thomas-Fermi vector in A             =   2.199445

 Write flags
   LWAVE        =      F    write WAVECAR
   LDOWNSAMPLE  =      F    k-point downsampling of WAVECAR
   LCHARG       =      F    write CHGCAR
   LVTOT        =      F    write LOCPOT, total local potential
   LVHAR        =      F    write LOCPOT, Hartree potential only
   LELF         =      F    write electronic localiz. function (ELF)
   LORBIT       =      0    0 simple, 1 ext, 2 COOP (PROOUT), +10 PAW based schemes

 Dipole corrections
   LMONO  =      F    monopole corrections only (constant potential shift)
   LDIPOL =      F    correct potential (dipole corrections)
   IDIPOL =      0    1-x, 2-y, 3-z, 4-all directions
   EPSILON=  1.0000000 bulk dielectric constant

 Exchange correlation treatment:
   GGA     =    --    GGA type
   VOSKOWN=      0    Vosko Wilk Nusair interpolation
   LHFCALC =     F    Hartree Fock is set to
   LHFONE  =     F    Hartree Fock one center treatment
   AEXX    =    0.0000 exact exchange contribution

 Linear response parameters
   LEPSILON=     F    determine dielectric tensor
   LRPA    =     F    only Hartree local field effects (RPA)
   LNABLA  =     F    use nabla operator in PAW spheres
[...]
   0.46153846  0.00000000  0.00000000       0.008
   0.47435897  0.00000000  0.00000000       0.008
   0.48717949  0.00000000  0.00000000       0.008
   0.50000000  0.00000000  0.00000000       0.008
   0.50000000  0.00000000  0.00000000       0.008
   0.49572650  0.00854701  0.00000000       0.008
   0.49145299  0.01709402  0.00000000       0.008
   0.48717949  0.02564103  0.00000000       0.008
   0.48290598  0.03418803  0.00000000       0.008
   0.47863248  0.04273504  0.00000000       0.008
   0.47435897  0.05128205  0.00000000       0.008
   0.47008547  0.05982906  0.00000000       0.008
   0.46581197  0.06837607  0.00000000       0.008
   0.46153846  0.07692308  0.00000000       0.008
   0.45726496  0.08547009  0.00000000       0.008
   0.45299145  0.09401709  0.00000000       0.008
   0.44871795  0.10256410  0.00000000       0.008
   0.44444444  0.11111111  0.00000000       0.008
   0.44017094  0.11965812  0.00000000       0.008
   0.43589744  0.12820513  0.00000000       0.008
   0.43162393  0.13675214  0.00000000       0.008
   0.42735043  0.14529915  0.00000000       0.008
   0.42307692  0.15384615  0.00000000       0.008
   0.41880342  0.16239316  0.00000000       0.008
[...]
   0.11965812  0.11965812  0.00000000       0.008
   0.11111111  0.11111111  0.00000000       0.008
   0.10256410  0.10256410  0.00000000       0.008
   0.09401709  0.09401709  0.00000000       0.008
   0.08547009  0.08547009  0.00000000       0.008
   0.07692308  0.07692308  0.00000000       0.008
   0.06837607  0.06837607  0.00000000       0.008
   0.05982906  0.05982906  0.00000000       0.008
   0.05128205  0.05128205  0.00000000       0.008
   0.04273504  0.04273504  0.00000000       0.008
   0.03418803  0.03418803  0.00000000       0.008
   0.02564103  0.02564103  0.00000000       0.008
   0.01709402  0.01709402  0.00000000       0.008
   0.00854701  0.00854701  0.00000000       0.008
   0.00000000  0.00000000  0.00000000       0.008

 position of ions in fractional coordinates (direct lattice)
   0.33333300  0.66666700  0.25000000
   0.66666700  0.33333300  0.75000000
   0.66666700  0.33333300  0.35517400
   0.33333300  0.66666700  0.85517400
   0.66666700  0.33333300  0.14482600
   0.33333300  0.66666700  0.64482600

 position of ions in cartesian coordinates  (Angst):
  -0.00000160  1.84193025  3.71975100
   1.59515960  0.92096375 11.15925300
   1.59515960  0.92096375  5.28463537
  -0.00000160  1.84193025 12.72413737
   1.59515960  0.92096375  2.15486663
  -0.00000160  1.84193025  9.59436863

 k-point  1 :   0.0000 0.0000 0.0000  plane waves:    3313
 k-point  2 :   0.0128 0.0000 0.0000  plane waves:    3315
 k-point  3 :   0.0256 0.0000 0.0000  plane waves:    3311
 k-point  4 :   0.0385 0.0000 0.0000  plane waves:    3304
 k-point  5 :   0.0513 0.0000 0.0000  plane waves:    3308
 k-point  6 :   0.0641 0.0000 0.0000  plane waves:    3314
 k-point  7 :   0.0769 0.0000 0.0000  plane waves:    3308
 k-point  8 :   0.0897 0.0000 0.0000  plane waves:    3306
 k-point  9 :   0.1026 0.0000 0.0000  plane waves:    3314
 k-point 10 :   0.1154 0.0000 0.0000  plane waves:    3318
 k-point 11 :   0.1282 0.0000 0.0000  plane waves:    3314
 k-point 12 :   0.1410 0.0000 0.0000  plane waves:    3312
 k-point 13 :   0.1538 0.0000 0.0000  plane waves:    3308
 k-point 14 :   0.1667 0.0000 0.0000  plane waves:    3312
 k-point 15 :   0.1795 0.0000 0.0000  plane waves:    3304
 k-point 16 :   0.1923 0.0000 0.0000  plane waves:    3314
 k-point 17 :   0.2051 0.0000 0.0000  plane waves:    3316
 k-point 18 :   0.2179 0.0000 0.0000  plane waves:    3324
 k-point 19 :   0.2308 0.0000 0.0000  plane waves:    3324
 k-point 20 :   0.2436 0.0000 0.0000  plane waves:    3322
 k-point 21 :   0.2564 0.0000 0.0000  plane waves:    3324
 k-point 22 :   0.2692 0.0000 0.0000  plane waves:    3320
 k-point 23 :   0.2821 0.0000 0.0000  plane waves:    3334
 k-point 24 :   0.2949 0.0000 0.0000  plane waves:    3334
 k-point 25 :   0.3077 0.0000 0.0000  plane waves:    3338
 k-point 26 :   0.3205 0.0000 0.0000  plane waves:    3342
 k-point 27 :   0.3333 0.0000 0.0000  plane waves:    3352
 k-point 28 :   0.3462 0.0000 0.0000  plane waves:    3346
 k-point 29 :   0.3590 0.0000 0.0000  plane waves:    3340
 k-point 30 :   0.3718 0.0000 0.0000  plane waves:    3348
 k-point 31 :   0.3846 0.0000 0.0000  plane waves:    3344
 k-point 32 :   0.3974 0.0000 0.0000  plane waves:    3346
 k-point 33 :   0.4103 0.0000 0.0000  plane waves:    3350
 k-point 34 :   0.4231 0.0000 0.0000  plane waves:    3352
 k-point 35 :   0.4359 0.0000 0.0000  plane waves:    3352
 k-point 36 :   0.4487 0.0000 0.0000  plane waves:    3346
 k-point 37 :   0.4615 0.0000 0.0000  plane waves:    3342
 k-point 38 :   0.4744 0.0000 0.0000  plane waves:    3344
 k-point 39 :   0.4872 0.0000 0.0000  plane waves:    3334
 k-point 40 :   0.5000 0.0000 0.0000  plane waves:    3328
 k-point 41 :   0.5000 0.0000 0.0000  plane waves:    3328
 k-point 42 :   0.4957 0.0085 0.0000  plane waves:    3332
 k-point 43 :   0.4915 0.0171 0.0000  plane waves:    3332
 k-point 44 :   0.4872 0.0256 0.0000  plane waves:    3342
 k-point 45 :   0.4829 0.0342 0.0000  plane waves:    3350
 k-point 46 :   0.4786 0.0427 0.0000  plane waves:    3354
 k-point 47 :   0.4744 0.0513 0.0000  plane waves:    3350
 k-point 48 :   0.4701 0.0598 0.0000  plane waves:    3342
 k-point 49 :   0.4658 0.0684 0.0000  plane waves:    3338
 k-point 50 :   0.4615 0.0769 0.0000  plane waves:    3342
 k-point 51 :   0.4573 0.0855 0.0000  plane waves:    3340
 k-point 52 :   0.4530 0.0940 0.0000  plane waves:    3328
 k-point 53 :   0.4487 0.1026 0.0000  plane waves:    3328
 k-point 54 :   0.4444 0.1111 0.0000  plane waves:    3334
 k-point 55 :   0.4402 0.1197 0.0000  plane waves:    3334
 k-point 56 :   0.4359 0.1282 0.0000  plane waves:    3330
 k-point 57 :   0.4316 0.1368 0.0000  plane waves:    3330
 k-point 58 :   0.4274 0.1453 0.0000  plane waves:    3334
 k-point 59 :   0.4231 0.1538 0.0000  plane waves:    3340
 k-point 60 :   0.4188 0.1624 0.0000  plane waves:    3336
[...]
 k-point 85 :   0.2991 0.2991 0.0000  plane waves:    3318
 k-point 86 :   0.2906 0.2906 0.0000  plane waves:    3326
 k-point 87 :   0.2821 0.2821 0.0000  plane waves:    3318
 k-point 88 :   0.2735 0.2735 0.0000  plane waves:    3338
 k-point 89 :   0.2650 0.2650 0.0000  plane waves:    3328
 k-point 90 :   0.2564 0.2564 0.0000  plane waves:    3336
 k-point 91 :   0.2479 0.2479 0.0000  plane waves:    3326
 k-point 92 :   0.2393 0.2393 0.0000  plane waves:    3338
 k-point 93 :   0.2308 0.2308 0.0000  plane waves:    3324
 k-point 94 :   0.2222 0.2222 0.0000  plane waves:    3336
 k-point 95 :   0.2137 0.2137 0.0000  plane waves:    3330
 k-point 96 :   0.2051 0.2051 0.0000  plane waves:    3334
 k-point 97 :   0.1966 0.1966 0.0000  plane waves:    3330
 k-point 98 :   0.1880 0.1880 0.0000  plane waves:    3334
 k-point 99 :   0.1795 0.1795 0.0000  plane waves:    3330
 k-point ** :   0.1709 0.1709 0.0000  plane waves:    3340
 k-point ** :   0.1624 0.1624 0.0000  plane waves:    3312
 k-point ** :   0.1538 0.1538 0.0000  plane waves:    3302
 k-point ** :   0.1453 0.1453 0.0000  plane waves:    3304
 k-point ** :   0.1368 0.1368 0.0000  plane waves:    3314
 k-point ** :   0.1282 0.1282 0.0000  plane waves:    3324
 k-point ** :   0.1197 0.1197 0.0000  plane waves:    3318
 k-point ** :   0.1111 0.1111 0.0000  plane waves:    3318
 k-point ** :   0.1026 0.1026 0.0000  plane waves:    3320
 k-point ** :   0.0940 0.0940 0.0000  plane waves:    3318
 k-point ** :   0.0855 0.0855 0.0000  plane waves:    3315
 k-point ** :   0.0769 0.0769 0.0000  plane waves:    3315
 k-point ** :   0.0684 0.0684 0.0000  plane waves:    3317
 k-point ** :   0.0598 0.0598 0.0000  plane waves:    3321
 k-point ** :   0.0513 0.0513 0.0000  plane waves:    3321
 k-point ** :   0.0427 0.0427 0.0000  plane waves:    3317
 k-point ** :   0.0342 0.0342 0.0000  plane waves:    3311
 k-point ** :   0.0256 0.0256 0.0000  plane waves:    3299
 k-point ** :   0.0171 0.0171 0.0000  plane waves:    3305
 k-point ** :   0.0085 0.0085 0.0000  plane waves:    3317
 k-point ** :   0.0000 0.0000 0.0000  plane waves:    3313

 maximum and minimum number of plane-waves per node :      3354     3299

 maximum number of plane-waves:      3354
 maximum index in each direction:
   IXMAX=    5   IYMAX=    5   IZMAX=   27
   IXMIN=   -6   IYMIN=   -6   IZMIN=  -27

 serial   3D FFT for wavefunctions
 parallel 3D FFT for charge:
    minimum data exchange during FFTs selected (reduces bandwidth)

 initial charge density was supplied:
 number of electron      36.0000013 magnetization
 keeping initial charge density in first step

 Maximum index for augmentation-charges        12837 (set IRDMAX)

 First call to EWALD:  gamma=   0.349
 Maximum number of real-space cells 5x 5x 1
 Maximum number of reciprocal cells 2x 2x 7

--------------------------------------- Iteration      1(   1)  ---------------------------------------

 eigenvalue-minimisations  :  5280
 total energy-change (2. order) : 0.2064237E+03  (-0.1556455E+04)
 number of electron      36.0000013 magnetization
 augmentation part       36.0000013 magnetization

 Free energy of the ion-electron system (eV)
  alpha Z        PSCENC =        80.02335958
  Ewald energy   TEWEN  =     -1146.88908035
  -Hartree energ DENC   =      -543.58948541
  -exchange      EXHF   =         0.00000000
  -V(xc)+E(xc)   XCENC  =       -71.81684348
  PAW double counting   =       946.54871455     -794.39195555
  entropy T*S    EENTRO =        -0.04226977
  eigenvalues    EBANDS =       191.47328624
  atomic energy  EATOM  =      1545.10800544
  Solvation  Ediel_sol  =         0.00000000
  free energy    TOTEN  =       206.42373125 eV

  energy without entropy =      206.46600102  energy(sigma->0) =      206.44486614

[...]

 eigenvalue-minimisations  :  7112
 total energy-change (2. order) :-0.2303886E+03  (-0.2237463E+03)
 number of electron      36.0000013 magnetization
 augmentation part       36.0000013 magnetization

[...]

--------------------------------------- Iteration      1(   8)  ---------------------------------------

 eigenvalue-minimisations  :  5836
 total energy-change (2. order) :-0.4863305E-06  (-0.4854236E-06)
 number of electron      36.0000013 magnetization
 augmentation part       36.0000013 magnetization

 Free energy of the ion-electron system (eV)
  alpha Z        PSCENC =        80.02335958
  Ewald energy   TEWEN  =     -1146.88908035
  -Hartree energ DENC   =      -543.58948541
  -exchange      EXHF   =         0.00000000
  -V(xc)+E(xc)   XCENC  =       -71.81684348
  PAW double counting   =       946.54871455     -794.39195555
  entropy T*S    EENTRO =        -0.00000003
  eigenvalues    EBANDS =       -57.97826106
  atomic energy  EATOM  =      1545.10800544
  Solvation  Ediel_sol  =         0.00000000
  free energy    TOTEN  =       -42.98554630 eV

  energy without entropy =      -42.98554627  energy(sigma->0) =      -42.98554629

 average (electrostatic) potential at core
  the test charge radii are     1.2296  0.9698
  (the norm of the test charge is              1.0000)
       1 -40.1560       2 -40.1560       3-104.4623       4-104.4623       5-104.4623
       6-104.4623

 E-fermi :   4.2504     XC(G=0):  -9.3284     alpha+bet : -9.9201

 k-point     1 :       0.0000    0.0000    0.0000
  band No.  band energies     occupation
      1     -10.6563      2.00000
      2     -10.6373      2.00000
      3      -9.4633      2.00000
      4      -9.4294      2.00000
      5      -2.2591      2.00000
      6      -2.0991      2.00000
      7       0.7624      2.00000
      8       0.7625      2.00000
      9       0.7630      2.00000
     10       0.7630      2.00000
     11       1.3567      2.00000
     12       1.8692      2.00000
     13       1.8692      2.00000
     14       1.8710      2.00000
     15       1.8711      2.00000
     16       1.9161      2.00000
     17       3.1608      2.00000
     18       3.5287      2.00000
     19       6.1123      0.00000
     20       6.1141      0.00000
     21       6.1471      0.00000
     22       6.2902      0.00000

[...]

 k-point   120 :       0.0000    0.0000    0.0000
  band No.  band energies     occupation
      1     -10.6563      2.00000
      2     -10.6373      2.00000
      3      -9.4633      2.00000
      4      -9.4294      2.00000
      5      -2.2591      2.00000
      6      -2.0991      2.00000
      7       0.7624      2.00000
      8       0.7625      2.00000
      9       0.7630      2.00000
     10       0.7630      2.00000
     11       1.3567      2.00000
     12       1.8692      2.00000
     13       1.8692      2.00000
     14       1.8710      2.00000
     15       1.8711      2.00000
     16       1.9161      2.00000
     17       3.1608      2.00000
     18       3.5287      2.00000
     19       6.1126      0.00000
     20       6.1155      0.00000
     21       6.1482      0.00000
     22       6.2579      0.00000

 soft charge-density along one line, spin component           1
         0         1         2         3         4         5         6         7         8         9
 total charge-density along one line

------------------------ aborting loop because EDIFF is reached ----------------------------------------

  FORCE on cell =-STRESS in cart. coord.  units (eV):
  Direction    XX          YY          ZZ          XY          YZ          ZX
  Alpha Z    80.02336    80.02336    80.02336
  Ewald     -12.90877   -12.90777 -1121.07436     0.00076     0.00000     0.00000
  Hartree   470.33156   470.33157  -393.27315     0.00001     0.00000    -0.00000
  E(xc)    -140.87980  -140.87980  -141.98097    -0.00000    -0.00000     0.00000
  Local   -1117.34744 -1117.34807   836.92696    -0.00061     0.00000    -0.00000
  n-local   329.19587   329.03014   343.62745    -0.84342    -0.00002     0.00004
  augment   -83.65759   -83.65743   -87.25118     0.00013     0.00000     0.00000
  Kinetic   470.31279   479.25961   484.82120   -12.48386     0.00003     0.00003
  Fock        0.00000     0.00000     0.00000     0.00000     0.00000     0.00000
  Total      -0.53921    -0.53921     1.81933    -0.00000     0.00000     0.00000
  in kB      -6.58711    -6.58711    22.22540    -0.00000     0.00000     0.00000

 VOLUME and BASIS-vectors are now :
  energy-cutoff  :      500.00
  volume of cell :      131.15
      direct lattice vectors                 reciprocal lattice vectors
     3.190316000  0.000000000  0.000000000     0.313448574  0.180969664  0.000000000
    -1.595158000  2.762894000  0.000000000     0.000000000  0.361939329  0.000000000
     0.000000000  0.000000000 14.879004000     0.000000000  0.000000000  0.067208800

  length of vectors
     3.190316000  3.190315392 14.879004000     0.361939260  0.361939329  0.067208800

 FORCES acting on ions
    electron-ion (+dipol)            ewald-force                    non-local-force                 convergence-correction
   0.951E-05 0.136E-04 -.906E-10   0.186E-03 -.138E-03 0.142E-13   -.173E-17 0.000E+00 -.208E-21   -.169E-05 0.938E-06 -.207E-10
   -.951E-05 -.136E-04 0.898E-10   -.186E-03 0.138E-03 0.114E-12   0.173E-17 0.000E+00 -.529E-22   0.169E-05 -.938E-06 -.109E-10
   -.915E-03 0.519E-03 -.244E+03   -.931E-04 0.690E-04 0.247E+03   0.347E-17 -.694E-17 -.437E+01   -.242E-05 0.162E-05 0.209E+01
   0.915E-03 -.519E-03 -.244E+03   0.931E-04 -.690E-04 0.247E+03   -.347E-17 0.104E-16 -.437E+01   0.242E-05 -.162E-05 0.209E+01
   -.915E-03 0.519E-03 0.244E+03   -.931E-04 0.690E-04 -.247E+03   0.347E-17 -.104E-16 0.437E+01   -.242E-05 0.162E-05 -.209E+01
   0.915E-03 -.519E-03 0.244E+03   0.931E-04 -.690E-04 -.247E+03   -.121E-16 0.694E-17 0.437E+01   0.242E-05 -.162E-05 -.209E+01
   -.389E-11 -.722E-11 -.188E-11   -.307E-14 -.630E-15 0.114E-12   -.867E-17 0.000E+00 0.000E+00   0.389E-10 -.896E-12 -.229E-10

 POSITION                                       TOTAL-FORCE (eV/Angst)
     -0.00000      1.84193      3.71975        -0.000000     -0.000000     -0.000000
      1.59516      0.92096     11.15925        -0.000000      0.000000     -0.000000
      1.59516      0.92096      5.28464         0.000000     -0.000000      0.059051
     -0.00000      1.84193     12.72414        -0.000000      0.000000      0.059051
      1.59516      0.92096      2.15487         0.000000      0.000000     -0.059051
     -0.00000      1.84193      9.59437        -0.000000      0.000000     -0.059051
    total drift:                                0.000000     -0.000000     -0.000000

  FREE ENERGIE OF THE ION-ELECTRON SYSTEM (eV)
  free  energy   TOTEN  =       -42.98554630 eV

  energy  without entropy=      -42.98554627  energy(sigma->0) =      -42.98554629