 vasp.5.4.4.18Apr17-6-g9f103f2a35 (build May 20 2018 16:52:39) complex

 executed on             LinuxIFC date 2022.11.07  01:01:47

 INCAR:
 POTCAR:    PAW Ni
 POTCAR:    PAW O
 POTCAR:    PAW Ni
   VRHFIN =Ni:

   TITEL  = PAW Ni
   POMASS =   58.690; ZVAL   =   10.000    mass and valenz
   ENMAX  =  269.561; ENMIN  =  202.171 eV
   QCUT   =   -4.451; QGAM   =    8.902    optimization parameters

   Description
     l     E      TYP  RCUT    TYP  RCUT
     2   .000     23  2.300
     2   .000     23  2.300
     0   .000     23  2.300
     0   .000     23  2.300
     1  -.200     23  2.300
     1   .000     23  2.300
     3   .000      7   .000

 POTCAR:    PAW O
   VRHFIN =O: s2p4

   TITEL  = PAW O
   POMASS =   16.000; ZVAL   =    6.000    mass and valenz
   ENMAX  =  400.000; ENMIN  =  300.000 eV
   QCUT   =   -5.520; QGAM   =   11.040    optimization parameters

   Description
     l     E      TYP  RCUT    TYP  RCUT
     0   .000     23  1.200
     0  -.700     23  1.200
     1   .000     23  1.520
     1   .600     23  1.520
     2   .000      7  1.500

  PAW Ni                                :
  PAW O                                 :

 POSCAR: NiO AFM
  positions in cartesian coordinates
  velocities in cartesian coordinates
 exchange correlation table for  LEXCH =        7
   RHO(1)=    0.500       N(1)  =     2000
   RHO(2)=  100.500       N(2)  =     4000

 ion  position               nearest neighbor table
   1  0.000  0.000  0.000-   4 2.08   4 2.08   4 2.08   3 2.08   3 2.08   3 2.08   2 2.95   2 2.95
                             2 2.95   2 2.95   2 2.95   2 2.95
   2  0.500  0.500  0.500-   3 2.08   3 2.08   3 2.08   4 2.08   4 2.08   4 2.08   1 2.95   1 2.95
                             1 2.95   1 2.95   1 2.95   1 2.95
   3  0.250  0.250  0.250-   1 2.08   1 2.08   1 2.08   2 2.08   2 2.08   2 2.08
   4  0.750  0.750  0.750-   2 2.08   2 2.08   2 2.08   1 2.08   1 2.08   1 2.08

  LATTYP: Found a trigonal (rhomboedric) cell.
 ALAT       =     5.1071861137
 COS(alpha) =     0.8333333333

  Lattice vectors:

 A1 = (   4.1700000000,   2.0850000000,   2.0850000000)
 A2 = (   2.0850000000,   4.1700000000,   2.0850000000)
 A3 = (   2.0850000000,   2.0850000000,   4.1700000000)

Analysis of symmetry for initial positions (statically):
 Subroutine PRICEL returns following result:

  LATTYP: Found a face centered cubic cell.
 ALAT       =     4.1700000000

[...]

   2 primitive cells build up your supercell.

 Routine SETGRP: Setting up the symmetry group for a
 trigonal (rhombohedral) supercell.

 Subroutine GETGRP returns: Found 12 space group operations
 (whereof 12 operations were pure point group operations)
 out of a pool of 12 trial point group operations.

The static configuration has the point symmetry D_3d.

Analysis of symmetry for dynamics (positions and initial velocities):
 Subroutine PRICEL returns following result:

[...]

The dynamic configuration has the point symmetry D_3d.

Analysis of structural, dynamic, and magnetic symmetry:
 Subroutine PRICEL returns following result:

  LATTYP: Found a face centered cubic cell.
 ALAT       =     4.1700000000

  Lattice vectors:

 A1 = (   2.0850000000,   0.0000000000,  -2.0850000000)
 A2 = (   0.0000000000,   2.0850000000,  -2.0850000000)
 A3 = (   2.0850000000,   2.0850000000,   0.0000000000)

   2 primitive cells build up your supercell.

 Routine SETGRP: Setting up the symmetry group for a
 trigonal (rhombohedral) supercell.

 Subroutine GETGRP returns: Found 12 space group operations
 (whereof 12 operations were pure point group operations)
 out of a pool of 12 trial point group operations.

The magnetic configuration has the point symmetry D_3d.

 Subroutine INISYM returns: Found 12 space group operations
 (whereof 12 operations are pure point group operations),
 and found     2 'primitive' translations

 KPOINTS: 20x20x20

Automatic generation of k-mesh.
Space group operators:
 irot       det(A)        alpha          n_x          n_y          n_z        tau_x        tau_y        tau_z
    1     1.000000     0.000000     1.000000     0.000000     0.000000     0.000000     0.000000     0.000000
    2    -1.000000     0.000000     1.000000     0.000000     0.000000     0.000000     0.000000     0.000000
    3     1.000000   180.000000     0.000000     0.707107    -0.707107     0.000000     0.000000     0.000000
    4    -1.000000   180.000000     0.000000     0.707107    -0.707107     0.000000     0.000000     0.000000
    5     1.000000   120.000000    -0.577350    -0.577350    -0.577350     0.000000     0.000000     0.000000
    6    -1.000000   120.000000    -0.577350    -0.577350    -0.577350     0.000000     0.000000     0.000000
    7     1.000000   180.000000     0.707107    -0.707107     0.000000     0.000000     0.000000     0.000000
    8    -1.000000   180.000000     0.707107    -0.707107     0.000000     0.000000     0.000000     0.000000
    9     1.000000   120.000000     0.577350     0.577350     0.577350     0.000000     0.000000     0.000000
   10    -1.000000   120.000000     0.577350     0.577350     0.577350     0.000000     0.000000     0.000000
   11     1.000000   180.000000     0.707107     0.000000    -0.707107     0.000000     0.000000     0.000000
   12    -1.000000   180.000000     0.707107     0.000000    -0.707107     0.000000     0.000000     0.000000

 Subroutine IBZKPT returns following result:

 Found    770 irreducible k-points:

 Following reciprocal coordinates:
            Coordinates               Weight
  0.025000  0.025000  0.025000      2.000000
  0.075000  0.025000  0.025000      6.000000
  0.125000  0.025000  0.025000      6.000000
  0.175000  0.025000  0.025000      6.000000
  0.225000  0.025000  0.025000      6.000000
  0.275000  0.025000  0.025000      6.000000
  0.325000  0.025000  0.025000      6.000000
  0.375000  0.025000  0.025000      6.000000
  0.425000  0.025000  0.025000      6.000000
  0.475000  0.025000  0.025000      6.000000
 -0.475000  0.025000  0.025000      6.000000
 -0.425000  0.025000  0.025000      6.000000
 -0.375000  0.025000  0.025000      6.000000
 -0.325000  0.025000  0.025000      6.000000
 -0.275000  0.025000  0.025000      6.000000
 -0.225000  0.025000  0.025000      6.000000
 -0.175000  0.025000  0.025000      6.000000
 -0.125000  0.025000  0.025000      6.000000
 -0.075000  0.025000  0.025000      6.000000
 -0.025000  0.025000  0.025000      6.000000
  0.075000  0.075000  0.025000      6.000000
  0.125000  0.075000  0.025000     12.000000
  0.175000  0.075000  0.025000     12.000000
  0.225000  0.075000  0.025000     12.000000
  0.275000  0.075000  0.025000     12.000000
  0.325000  0.075000  0.025000     12.000000
  0.375000  0.075000  0.025000     12.000000
  0.425000  0.075000  0.025000     12.000000
  0.475000  0.075000  0.025000     12.000000
 -0.475000  0.075000  0.025000     12.000000
 -0.425000  0.075000  0.025000     12.000000
 -0.375000  0.075000  0.025000     12.000000
 -0.325000  0.075000  0.025000     12.000000
 -0.275000  0.075000  0.025000     12.000000
 -0.225000  0.075000  0.025000     12.000000
 -0.175000  0.075000  0.025000     12.000000
 -0.125000  0.075000  0.025000     12.000000
 -0.075000  0.075000  0.025000     12.000000
 -0.025000  0.075000  0.025000     12.000000
  0.125000  0.125000  0.025000      6.000000
  0.175000  0.125000  0.025000     12.000000
  0.225000  0.125000  0.025000     12.000000
  0.275000  0.125000  0.025000     12.000000
  0.325000  0.125000  0.025000     12.000000
  0.375000  0.125000  0.025000     12.000000
  0.425000  0.125000  0.025000     12.000000
  0.475000  0.125000  0.025000     12.000000
 -0.475000  0.125000  0.025000     12.000000
 -0.425000  0.125000  0.025000     12.000000
 -0.375000  0.125000  0.025000     12.000000
 -0.325000  0.125000  0.025000     12.000000
 -0.275000  0.125000  0.025000     12.000000
 -0.225000  0.125000  0.025000     12.000000
 -0.175000  0.125000  0.025000     12.000000
 -0.125000  0.125000  0.025000     12.000000
 -0.075000  0.125000  0.025000     12.000000
 -0.025000  0.125000  0.025000     12.000000
  0.175000  0.175000  0.025000      6.000000
  0.225000  0.175000  0.025000     12.000000
  0.275000  0.175000  0.025000     12.000000
[...]
 -0.425000  0.475000  0.375000     12.000000
 -0.375000  0.475000  0.375000     12.000000
 -0.475000 -0.475000  0.375000      6.000000
 -0.425000 -0.475000  0.375000     12.000000
 -0.425000 -0.425000  0.375000      6.000000
  0.425000  0.425000  0.425000      2.000000
  0.475000  0.425000  0.425000      6.000000
 -0.475000  0.425000  0.425000      6.000000
 -0.425000  0.425000  0.425000      6.000000
  0.475000  0.475000  0.425000      6.000000
 -0.475000  0.475000  0.425000     12.000000
 -0.425000  0.475000  0.425000     12.000000
 -0.475000 -0.475000  0.425000      6.000000
  0.475000  0.475000  0.475000      2.000000
 -0.475000  0.475000  0.475000      6.000000

 Following cartesian coordinates:
            Coordinates               Weight
  0.012500  0.012500  0.012500      2.000000
  0.087500 -0.012500 -0.012500      6.000000
  0.162500 -0.037500 -0.037500      6.000000
  0.237500 -0.062500 -0.062500      6.000000
  0.312500 -0.087500 -0.087500      6.000000
  0.387500 -0.112500 -0.112500      6.000000
  0.462500 -0.137500 -0.137500      6.000000
  0.537500 -0.162500 -0.162500      6.000000
  0.612500 -0.187500 -0.187500      6.000000
  0.687500 -0.212500 -0.212500      6.000000
 -0.737500  0.262500  0.262500      6.000000
 -0.662500  0.237500  0.237500      6.000000
 -0.587500  0.212500  0.212500      6.000000
 -0.512500  0.187500  0.187500      6.000000
 -0.437500  0.162500  0.162500      6.000000
 -0.362500  0.137500  0.137500      6.000000
 -0.287500  0.112500  0.112500      6.000000
 -0.212500  0.087500  0.087500      6.000000
 -0.137500  0.062500  0.062500      6.000000
 -0.062500  0.037500  0.037500      6.000000
  0.062500  0.062500 -0.037500      6.000000
  0.137500  0.037500 -0.062500     12.000000
  0.212500  0.012500 -0.087500     12.000000
  0.287500 -0.012500 -0.112500     12.000000
  0.362500 -0.037500 -0.137500     12.000000
  0.437500 -0.062500 -0.162500     12.000000
  0.512500 -0.087500 -0.187500     12.000000
  0.587500 -0.112500 -0.212500     12.000000
  0.662500 -0.137500 -0.237500     12.000000
 -0.762500  0.337500  0.237500     12.000000
 -0.687500  0.312500  0.212500     12.000000
 -0.612500  0.287500  0.187500     12.000000
 -0.537500  0.262500  0.162500     12.000000
 -0.462500  0.237500  0.137500     12.000000
 -0.387500  0.212500  0.112500     12.000000
 -0.312500  0.187500  0.087500     12.000000
 -0.237500  0.162500  0.062500     12.000000
 -0.162500  0.137500  0.037500     12.000000
 -0.087500  0.112500  0.012500     12.000000
  0.112500  0.112500 -0.087500      6.000000
  0.187500  0.087500 -0.112500     12.000000
  0.262500  0.062500 -0.137500     12.000000
  0.337500  0.037500 -0.162500     12.000000
  0.412500  0.012500 -0.187500     12.000000
  0.487500 -0.012500 -0.212500     12.000000
  0.562500 -0.037500 -0.237500     12.000000
  0.637500 -0.062500 -0.262500     12.000000
 -0.787500  0.412500  0.212500     12.000000
 -0.712500  0.387500  0.187500     12.000000
[...]
 k-point 22 :   0.1250 0.0750 0.0250  plane waves:     664
 k-point 23 :   0.1750 0.0750 0.0250  plane waves:     661
 k-point 24 :   0.2250 0.0750 0.0250  plane waves:     656
 k-point 25 :   0.2750 0.0750 0.0250  plane waves:     660
 k-point 26 :   0.3250 0.0750 0.0250  plane waves:     659
 k-point 27 :   0.3750 0.0750 0.0250  plane waves:     658
 k-point 28 :   0.4250 0.0750 0.0250  plane waves:     655
 k-point 29 :   0.4750 0.0750 0.0250  plane waves:     657
 k-point 30 :  -0.4750 0.0750 0.0250  plane waves:     659
 k-point 31 :  -0.4250 0.0750 0.0250  plane waves:     660
 k-point 32 :  -0.3750 0.0750 0.0250  plane waves:     659
 k-point 33 :  -0.3250 0.0750 0.0250  plane waves:     664
 k-point 34 :  -0.2750 0.0750 0.0250  plane waves:     663
 k-point 35 :  -0.2250 0.0750 0.0250  plane waves:     658
 k-point 36 :  -0.1750 0.0750 0.0250  plane waves:     654
 k-point 37 :  -0.1250 0.0750 0.0250  plane waves:     656
 k-point 38 :  -0.0750 0.0750 0.0250  plane waves:     661
 k-point 39 :  -0.0250 0.0750 0.0250  plane waves:     663
 k-point 40 :   0.1250 0.1250 0.0250  plane waves:     665
 k-point 41 :   0.1750 0.1250 0.0250  plane waves:     659
 k-point 42 :   0.2250 0.1250 0.0250  plane waves:     654
 k-point 43 :   0.2750 0.1250 0.0250  plane waves:     655
 k-point 44 :   0.3250 0.1250 0.0250  plane waves:     656
 k-point 45 :   0.3750 0.1250 0.0250  plane waves:     659
 k-point 46 :   0.4250 0.1250 0.0250  plane waves:     660
 k-point 47 :   0.4750 0.1250 0.0250  plane waves:     657
 k-point 48 :  -0.4750 0.1250 0.0250  plane waves:     658
 k-point 49 :  -0.4250 0.1250 0.0250  plane waves:     665
 k-point 50 :  -0.3750 0.1250 0.0250  plane waves:     661
 k-point 51 :  -0.3250 0.1250 0.0250  plane waves:     661
 k-point 52 :  -0.2750 0.1250 0.0250  plane waves:     663
 k-point 53 :  -0.2250 0.1250 0.0250  plane waves:     659
 k-point 54 :  -0.1750 0.1250 0.0250  plane waves:     657
 k-point 55 :  -0.1250 0.1250 0.0250  plane waves:     656
 k-point 56 :  -0.0750 0.1250 0.0250  plane waves:     657
 k-point 57 :  -0.0250 0.1250 0.0250  plane waves:     661
 k-point 58 :   0.1750 0.1750 0.0250  plane waves:     659
 k-point 59 :   0.2250 0.1750 0.0250  plane waves:     653
 k-point 60 :   0.2750 0.1750 0.0250  plane waves:     655
[...]
 k-point 85 :  -0.2750 0.2250 0.0250  plane waves:     657
 k-point 86 :  -0.2250 0.2250 0.0250  plane waves:     656
 k-point 87 :  -0.1750 0.2250 0.0250  plane waves:     650
 k-point 88 :  -0.1250 0.2250 0.0250  plane waves:     655
 k-point 89 :  -0.0750 0.2250 0.0250  plane waves:     655
 k-point 90 :  -0.0250 0.2250 0.0250  plane waves:     656
 k-point 91 :   0.2750 0.2750 0.0250  plane waves:     653
 k-point 92 :   0.3250 0.2750 0.0250  plane waves:     657
 k-point 93 :   0.3750 0.2750 0.0250  plane waves:     661
 k-point 94 :   0.4250 0.2750 0.0250  plane waves:     660
 k-point 95 :   0.4750 0.2750 0.0250  plane waves:     663
 k-point 96 :  -0.4750 0.2750 0.0250  plane waves:     660
 k-point 97 :  -0.4250 0.2750 0.0250  plane waves:     661
 k-point 98 :  -0.3750 0.2750 0.0250  plane waves:     660
 k-point 99 :  -0.3250 0.2750 0.0250  plane waves:     663
 k-point ** :  -0.2750 0.2750 0.0250  plane waves:     662
 k-point ** :  -0.2250 0.2750 0.0250  plane waves:     655
 k-point ** :  -0.1750 0.2750 0.0250  plane waves:     654
 k-point ** :  -0.1250 0.2750 0.0250  plane waves:     658
 k-point ** :  -0.0750 0.2750 0.0250  plane waves:     659
 k-point ** :  -0.0250 0.2750 0.0250  plane waves:     658
 k-point ** :   0.3250 0.3250 0.0250  plane waves:     663
 k-point ** :   0.3750 0.3250 0.0250  plane waves:     663
 k-point ** :   0.4250 0.3250 0.0250  plane waves:     659
 k-point ** :   0.4750 0.3250 0.0250  plane waves:     662
 k-point ** :  -0.4750 0.3250 0.0250  plane waves:     665
 k-point ** :  -0.4250 0.3250 0.0250  plane waves:     664
 k-point ** :  -0.3750 0.3250 0.0250  plane waves:     663
 k-point ** :  -0.3250 0.3250 0.0250  plane waves:     658
 k-point ** :  -0.2750 0.3250 0.0250  plane waves:     659
 k-point ** :  -0.2250 0.3250 0.0250  plane waves:     659
 k-point ** :  -0.1750 0.3250 0.0250  plane waves:     655
 k-point ** :  -0.1250 0.3250 0.0250  plane waves:     657
 k-point ** :  -0.0750 0.3250 0.0250  plane waves:     660
 k-point ** :  -0.0250 0.3250 0.0250  plane waves:     659
 k-point ** :   0.3750 0.3750 0.0250  plane waves:     662
 k-point ** :   0.4250 0.3750 0.0250  plane waves:     658
 k-point ** :   0.4750 0.3750 0.0250  plane waves:     662
 k-point ** :  -0.4750 0.3750 0.0250  plane waves:     663
 k-point ** :  -0.4250 0.3750 0.0250  plane waves:     659
 k-point ** :  -0.3750 0.3750 0.0250  plane waves:     660
 k-point ** :  -0.3250 0.3750 0.0250  plane waves:     662
 k-point ** :  -0.2750 0.3750 0.0250  plane waves:     659
 k-point ** :  -0.2250 0.3750 0.0250  plane waves:     661
 k-point ** :  -0.1750 0.3750 0.0250  plane waves:     661
 k-point ** :  -0.1250 0.3750 0.0250  plane waves:     658
 k-point ** :  -0.0750 0.3750 0.0250  plane waves:     657
 k-point ** :  -0.0250 0.3750 0.0250  plane waves:     658
 k-point ** :   0.4250 0.4250 0.0250  plane waves:     660
 k-point ** :   0.4750 0.4250 0.0250  plane waves:     662
 k-point ** :  -0.4750 0.4250 0.0250  plane waves:     666
 k-point ** :  -0.4250 0.4250 0.0250  plane waves:     656
 k-point ** :  -0.3750 0.4250 0.0250  plane waves:     661
 k-point ** :  -0.3250 0.4250 0.0250  plane waves:     663
 k-point ** :  -0.2750 0.4250 0.0250  plane waves:     665
 k-point ** :  -0.2250 0.4250 0.0250  plane waves:     661
 k-point ** :  -0.1750 0.4250 0.0250  plane waves:     663
 k-point ** :  -0.1250 0.4250 0.0250  plane waves:     664
 k-point ** :  -0.0750 0.4250 0.0250  plane waves:     659
 k-point ** :  -0.0250 0.4250 0.0250  plane waves:     661
 k-point ** :   0.4750 0.4750 0.0250  plane waves:     670
 k-point ** :  -0.4750 0.4750 0.0250  plane waves:     672
 k-point ** :  -0.4250 0.4750 0.0250  plane waves:     661
 k-point ** :  -0.3750 0.4750 0.0250  plane waves:     658
 k-point ** :  -0.3250 0.4750 0.0250  plane waves:     661
 k-point ** :  -0.2750 0.4750 0.0250  plane waves:     664
 k-point ** :  -0.2250 0.4750 0.0250  plane waves:     662
 k-point ** :  -0.1750 0.4750 0.0250  plane waves:     661
 k-point ** :  -0.1250 0.4750 0.0250  plane waves:     662
 k-point ** :  -0.0750 0.4750 0.0250  plane waves:     663
 k-point ** :  -0.0250 0.4750 0.0250  plane waves:     659
 k-point ** :  -0.4750-0.4750 0.0250  plane waves:     672
 k-point ** :  -0.4250-0.4750 0.0250  plane waves:     671
 k-point ** :  -0.3750-0.4750 0.0250  plane waves:     662
 k-point ** :  -0.3250-0.4750 0.0250  plane waves:     664
[...]
 k-point ** :  -0.4250 0.4750 0.3750  plane waves:     654
 k-point ** :  -0.3750 0.4750 0.3750  plane waves:     653
 k-point ** :  -0.4750-0.4750 0.3750  plane waves:     652
 k-point ** :  -0.4250-0.4750 0.3750  plane waves:     653
 k-point ** :  -0.4250-0.4250 0.3750  plane waves:     650
 k-point ** :   0.4250 0.4250 0.4250  plane waves:     652
 k-point ** :   0.4750 0.4250 0.4250  plane waves:     653
 k-point ** :  -0.4750 0.4250 0.4250  plane waves:     655
 k-point ** :  -0.4250 0.4250 0.4250  plane waves:     654
 k-point ** :   0.4750 0.4750 0.4250  plane waves:     648
 k-point ** :  -0.4750 0.4750 0.4250  plane waves:     652
 k-point ** :  -0.4250 0.4750 0.4250  plane waves:     655
 k-point ** :  -0.4750-0.4750 0.4250  plane waves:     653
 k-point ** :   0.4750 0.4750 0.4750  plane waves:     649
 k-point ** :  -0.4750 0.4750 0.4750  plane waves:     648

 maximum and minimum number of plane-waves per node :       673      646

 maximum number of plane-waves:       673
 maximum index in each direction:
   IXMAX=    8   IYMAX=    8   IZMAX=    8
   IXMIN=   -8   IYMIN=   -8   IZMIN=   -8

 serial   3D FFT for wavefunctions
 parallel 3D FFT for charge:
    minimum data exchange during FFTs selected (reduces bandwidth)

 initial charge density was supplied:
 number of electron      32.0000048 magnetization      -0.0000000
 keeping initial charge density in first step

 Maximum index for augmentation-charges        19063 (set IRDMAX)

 First call to EWALD:  gamma=   0.536
 Maximum number of real-space cells 3x 3x 3
 Maximum number of reciprocal cells 4x 4x 4

--------------------------------------- Iteration      1(   1)  ---------------------------------------

 BZINTS: Fermi energy: 16.091762; 32.000000 electrons
         Band energy: 177.114595;  BLOECHL correction: -0.398944

 eigenvalue-minimisations  : 63312
 total energy-change (2. order) : 0.2075987E+03  (-0.1459546E+04)
 number of electron      32.0000048 magnetization      -0.0000000
 augmentation part       32.0000048 magnetization      -0.0000000

 Free energy of the ion-electron system (eV)
  alpha Z        PSCENC =       217.71629331
  Ewald energy   TEWEN  =     -2604.77031634
  -Hartree energ DENC   =      -632.49514599
  -exchange      EXHF   =         0.00000000
  -V(xc)+E(xc)   XCENC  =       119.26979754
  PAW double counting   =      2353.94650180    -2447.92555954
  entropy T*S    EENTRO =         0.00000000
  eigenvalues    EBANDS =       177.11459488
  atomic energy  EATOM  =      3024.74254395
  Solvation  Ediel_sol  =         0.00000000
  free energy    TOTEN  =       207.59870961 eV

  energy without entropy =      207.59870961  energy(sigma->0) =      207.59870961

[...]

 eigenvalue-minimisations  : 64668
 total energy-change (2. order) :-0.2034651E+03  (-0.1943471E+03)
 number of electron      32.0000048 magnetization      -0.0000000
 augmentation part       32.0000048 magnetization      -0.0000000

[...]

--------------------------------------- Iteration      1(   6)  ---------------------------------------

[...]

 eigenvalue-minimisations  : 67400
 total energy-change (2. order) :-0.9402476E-04  (-0.9402017E-04)
 number of electron      32.0000048 magnetization      -0.0000000
 augmentation part       32.0000048 magnetization      -0.0000000

 Free energy of the ion-electron system (eV)
  alpha Z        PSCENC =       217.71629331
  Ewald energy   TEWEN  =     -2604.77031634
  -Hartree energ DENC   =      -632.49514599
  -exchange      EXHF   =         0.00000000
  -V(xc)+E(xc)   XCENC  =       119.26979754
  PAW double counting   =      2353.94650180    -2447.92555954
  entropy T*S    EENTRO =         0.00000000
  eigenvalues    EBANDS =       -45.96150262
  atomic energy  EATOM  =      3024.74254395
  Solvation  Ediel_sol  =         0.00000000
  free energy    TOTEN  =       -15.47738789 eV

  energy without entropy =      -15.47738789  energy(sigma->0) =      -15.47738789

 average (electrostatic) potential at core
  the test charge radii are     0.9791  0.7215
  (the norm of the test charge is              1.0000)
       1 -43.1214       2 -43.1214       3 -71.0792       4 -71.0792

 E-fermi :   3.7263     XC(G=0): -12.7209     alpha+bet :-11.2748

 spin component 1

 k-point     1 :       0.0250    0.0250    0.0250
  band No.  band energies     occupation
      1     -14.6936      1.00000
      2     -13.2351      1.00000
      3      -3.4738      1.00000
      4      -2.4902      1.00000
      5      -2.4902      1.00000
      6      -1.3469      1.00000
      7      -1.3469      1.00000
      8      -0.5725      1.00000
      9       1.2934      1.00000
     10       1.2934      1.00000
     11       2.6220      1.00000
     12       2.6220      1.00000
     13       2.7302      1.00000
     14       2.7548      1.00000
     15       2.7548      1.00000
     16       2.9831      1.00000
     17       5.6628      0.00000
     18       5.6628      0.00000
     19       7.0720      0.00000
     20      10.9894      0.00000

[...]

 spin component 2

[...]

 k-point   770 :      -0.4750    0.4750    0.4750
  band No.  band energies     occupation
      1     -14.0356      1.00000
      2     -13.9954      1.00000
      3      -2.4273      1.00000
      4      -2.3779      1.00000
      5      -2.3625      1.00000
      6      -1.3498      1.00000
      7      -1.3341      1.00000
      8      -0.6615      1.00000
      9       0.3442      1.00000
     10       0.6883      1.00000
     11       1.1833      1.00000
     12       2.5435      1.00000
     13       2.5558      1.00000
     14       2.9455      1.00000
     15       3.5827      1.00000
     16       3.5853      1.00000
     17       5.2230      0.00000
     18       5.3266      0.00000
     19       9.8595      0.00000
     20      10.0059      0.00000

 soft charge-density along one line, spin component           1
         0         1         2         3         4         5         6         7         8         9
 total charge-density along one line

 soft charge-density along one line, spin component           2
         0         1         2         3         4         5         6         7         8         9
 total charge-density along one line

------------------------ aborting loop because EDIFF is reached ----------------------------------------

 total charge

# of ion       s       p       d       tot
    1        0.340   0.411   8.656   9.407
    2        0.340   0.411   8.656   9.407
    3        1.573   3.159   0.000   4.732
    4        1.573   3.159   0.000   4.732
tot          3.825   7.141  17.312  28.278

 magnetization (x)

[...]

  FORCE on cell =-STRESS in cart. coord.  units (eV):
  Direction    XX          YY          ZZ          XY          YZ          ZX
  Alpha Z   217.71629   217.71629   217.71629
  Ewald    -868.25805  -868.25805  -868.25805     0.00000    -0.00000    -0.00000
  Hartree   221.08821   221.08821   221.08821    -0.14516    -0.14516    -0.14516
  E(xc)    -171.11705  -171.11705  -171.11705     0.00897     0.00897     0.00897
  Local     195.48517   195.48517   195.48517     0.35373     0.35373     0.35373
  n-local   -96.13265   -98.32226   -96.44987     0.19076    -0.07533     0.16261
  augment   123.39858   123.39858   123.39858    -0.08533    -0.08533    -0.08533
  Kinetic   401.52315   404.48176   401.92512    -0.59136     0.35508    -0.28025
  Fock        0.00000     0.00000     0.00000     0.00000     0.00000     0.00000
  Total      23.98824    23.98824    23.98824    -0.02339    -0.02339    -0.02339
  in kB    1060.06088  1060.06088  1060.06088    -1.03344    -1.03344    -1.03344

 VOLUME and BASIS-vectors are now :
  energy-cutoff  :      400.00
  volume of cell :       36.26
      direct lattice vectors                 reciprocal lattice vectors
     4.170000000  2.085000000  2.085000000     0.359712230 -0.119904077 -0.119904077
     2.085000000  4.170000000  2.085000000    -0.119904077  0.359712230 -0.119904077
     2.085000000  2.085000000  4.170000000    -0.119904077 -0.119904077  0.359712230

  length of vectors
     5.107186114  5.107186114  5.107186114     0.397676833  0.397676833  0.397676833

 FORCES acting on ions
    electron-ion (+dipol)            ewald-force                    non-local-force                 convergence-correction
   0.198E-13 -.117E-12 -.160E-12   0.000E+00 -.284E-13 -.568E-13   0.424E-21 0.529E-21 0.212E-21   -.609E-13 -.685E-13 -.705E-13
   0.918E-12 0.204E-11 0.208E-11   0.568E-13 0.284E-13 0.000E+00   -.741E-21 0.318E-21 0.424E-21   -.555E-12 -.465E-12 -.481E-12
   -.516E-12 0.631E-12 0.625E-12   -.426E-13 -.131E-13 0.169E-13   -.106E-21 -.212E-21 0.000E+00   -.202E-14 -.316E-13 -.376E-13
   0.248E-11 -.107E-11 -.107E-11   -.152E-13 0.134E-13 0.426E-13   -.953E-21 -.212E-21 0.424E-21   -.426E-13 0.159E-12 0.132E-12
   0.290E-11 0.148E-11 0.148E-11   -.869E-15 0.280E-15 0.262E-14   -.138E-20 0.424E-21 0.106E-20   -.661E-12 -.406E-12 -.457E-12

 POSITION                                       TOTAL-FORCE (eV/Angst)
      0.00000      0.00000      0.00000        -0.000000      0.000000      0.000000
      4.17000      4.17000      4.17000        -0.000000      0.000000     -0.000000
      2.08500      2.08500      2.08500         0.000000     -0.000000      0.000000
      6.25500      6.25500      6.25500         0.000000      0.000000      0.000000
    total drift:                                0.000000      0.000000      0.000000

  FREE ENERGIE OF THE ION-ELECTRON SYSTEM (eV)
  free  energy   TOTEN  =       -15.47738789 eV

  energy  without entropy=      -15.47738789  energy(sigma->0) =      -15.47738789

 total charge

[...]

 magnetization (x)

# of ion       s       p       d       tot
    1       -0.007  -0.016   1.258   1.235
    2        0.007   0.016  -1.258  -1.235
    3       -0.000  -0.000   0.000  -0.000
    4       -0.000   0.000   0.000   0.000
tot         -0.000   0.000  -0.000  -0.000

 BZINTS: Fermi energy:  3.726309; 32.000000 electrons
         Band energy: -45.961503;  BLOECHL correction:  0.000000