 vasp.5.4.4.18Apr17-6-g9f103f2a35 (build May 20 2018 16:52:39) complex

 executed on             LinuxIFC date 2022.11.17  21:34:44

 INCAR:
 POTCAR:    PAW Nb_pv 09Jan2002

 POTCAR:    PAW Nb_pv 09Jan2002
   VRHFIN =Nb: s1d4

   TITEL  = PAW Nb_pv 09Jan2002
   POMASS =   92.910; ZVAL   =   11.000    mass and valenz
   ENMAX  =  207.263; ENMIN  =  155.447 eV

  PAW Nb_pv 09Jan2002                   :

 POSCAR: primitive Nb
  positions in direct lattice
 exchange correlation table for  LEXCH =        2
   RHO(1)=    0.500       N(1)  =     2000
   RHO(2)=  100.500       N(2)  =     4000

 ion  position               nearest neighbor table
   1  0.000  0.000  0.000-

  LATTYP: Found a body centered cubic cell.
 ALAT       =     3.3008000000

  Lattice vectors:

 A1 = (  -1.6504000000,   1.6504000000,   1.6504000000)
 A2 = (   1.6504000000,  -1.6504000000,   1.6504000000)
 A3 = (   1.6504000000,   1.6504000000,  -1.6504000000)

Analysis of symmetry for initial positions (statically):
 Subroutine PRICEL returns:
 Original cell was already a primitive cell.

 Routine SETGRP: Setting up the symmetry group for a
 body centered cubic supercell.

 Subroutine GETGRP returns: Found 48 space group operations
 (whereof 48 operations were pure point group operations)
 out of a pool of 48 trial point group operations.

The static configuration has the point symmetry O_h .

Analysis of symmetry for dynamics (positions and initial velocities):
 Subroutine PRICEL returns:
 Original cell was already a primitive cell.

 Routine SETGRP: Setting up the symmetry group for a
 body centered cubic supercell.

 Subroutine GETGRP returns: Found 48 space group operations
 (whereof 48 operations were pure point group operations)
 out of a pool of 48 trial point group operations.

The dynamic configuration has the point symmetry O_h .

 Subroutine INISYM returns: Found 48 space group operations
 (whereof 48 operations are pure point group operations),
 and found     1 'primitive' translations

 KPOINTS: 10*10*10

Automatic generation of k-mesh.
Space group operators:
 irot       det(A)        alpha          n_x          n_y          n_z        tau_x        tau_y        tau_z
    1     1.000000     0.000000     1.000000     0.000000     0.000000     0.000000     0.000000     0.000000
    2    -1.000000     0.000000     1.000000     0.000000     0.000000     0.000000     0.000000     0.000000
    3     1.000000   120.000000    -0.577350    -0.577350    -0.577350     0.000000     0.000000     0.000000
    4    -1.000000   120.000000    -0.577350    -0.577350    -0.577350     0.000000     0.000000     0.000000
    5     1.000000   120.000000     0.577350     0.577350     0.577350     0.000000     0.000000     0.000000
    6    -1.000000   120.000000     0.577350     0.577350     0.577350     0.000000     0.000000     0.000000
    7     1.000000    90.000000     0.000000     0.000000    -1.000000     0.000000     0.000000     0.000000
    8    -1.000000    90.000000     0.000000     0.000000    -1.000000     0.000000     0.000000     0.000000
    9     1.000000   180.000000     0.000000     0.707107     0.707107     0.000000     0.000000     0.000000
   10    -1.000000   180.000000     0.000000     0.707107     0.707107     0.000000     0.000000     0.000000
   11     1.000000    90.000000     0.000000     1.000000     0.000000     0.000000     0.000000     0.000000
   12    -1.000000    90.000000     0.000000     1.000000     0.000000     0.000000     0.000000     0.000000
   13     1.000000   180.000000     0.000000     0.000000     1.000000     0.000000     0.000000     0.000000
   14    -1.000000   180.000000     0.000000     0.000000     1.000000     0.000000     0.000000     0.000000
   15     1.000000   120.000000    -0.577350     0.577350     0.577350     0.000000     0.000000     0.000000
   16    -1.000000   120.000000    -0.577350     0.577350     0.577350     0.000000     0.000000     0.000000
   17     1.000000   120.000000    -0.577350     0.577350    -0.577350     0.000000     0.000000     0.000000
   18    -1.000000   120.000000    -0.577350     0.577350    -0.577350     0.000000     0.000000     0.000000
   19     1.000000    90.000000     0.000000     0.000000     1.000000     0.000000     0.000000     0.000000
   20    -1.000000    90.000000     0.000000     0.000000     1.000000     0.000000     0.000000     0.000000
   21     1.000000    90.000000    -1.000000     0.000000     0.000000     0.000000     0.000000     0.000000
   22    -1.000000    90.000000    -1.000000     0.000000     0.000000     0.000000     0.000000     0.000000
   23     1.000000   180.000000     0.707107     0.000000     0.707107     0.000000     0.000000     0.000000
   24    -1.000000   180.000000     0.707107     0.000000     0.707107     0.000000     0.000000     0.000000
   25     1.000000   120.000000     0.577350    -0.577350     0.577350     0.000000     0.000000     0.000000
   26    -1.000000   120.000000     0.577350    -0.577350     0.577350     0.000000     0.000000     0.000000
   27     1.000000   120.000000    -0.577350    -0.577350     0.577350     0.000000     0.000000     0.000000
   28    -1.000000   120.000000    -0.577350    -0.577350     0.577350     0.000000     0.000000     0.000000
   29     1.000000   180.000000     1.000000     0.000000     0.000000     0.000000     0.000000     0.000000
   30    -1.000000   180.000000     1.000000     0.000000     0.000000     0.000000     0.000000     0.000000
   31     1.000000    90.000000     0.000000    -1.000000     0.000000     0.000000     0.000000     0.000000
   32    -1.000000    90.000000     0.000000    -1.000000     0.000000     0.000000     0.000000     0.000000
   33     1.000000   180.000000     0.707107     0.707107     0.000000     0.000000     0.000000     0.000000
   34    -1.000000   180.000000     0.707107     0.707107     0.000000     0.000000     0.000000     0.000000
   35     1.000000    90.000000     1.000000     0.000000     0.000000     0.000000     0.000000     0.000000
   36    -1.000000    90.000000     1.000000     0.000000     0.000000     0.000000     0.000000     0.000000
   37     1.000000   120.000000     0.577350    -0.577350    -0.577350     0.000000     0.000000     0.000000
   38    -1.000000   120.000000     0.577350    -0.577350    -0.577350     0.000000     0.000000     0.000000
   39     1.000000   180.000000     0.000000     1.000000     0.000000     0.000000     0.000000     0.000000
   40    -1.000000   180.000000     0.000000     1.000000     0.000000     0.000000     0.000000     0.000000
   41     1.000000   120.000000     0.577350     0.577350    -0.577350     0.000000     0.000000     0.000000
   42    -1.000000   120.000000     0.577350     0.577350    -0.577350     0.000000     0.000000     0.000000
   43     1.000000   180.000000     0.000000    -0.707107     0.707107     0.000000     0.000000     0.000000
   44    -1.000000   180.000000     0.000000    -0.707107     0.707107     0.000000     0.000000     0.000000
   45     1.000000   180.000000     0.707107    -0.707107     0.000000     0.000000     0.000000     0.000000
   46    -1.000000   180.000000     0.707107    -0.707107     0.000000     0.000000     0.000000     0.000000
   47     1.000000   180.000000     0.707107     0.000000    -0.707107     0.000000     0.000000     0.000000
   48    -1.000000   180.000000     0.707107     0.000000    -0.707107     0.000000     0.000000     0.000000

 Subroutine IBZKPT returns following result:

 Found     44 irreducible k-points:

 Following reciprocal coordinates:
            Coordinates               Weight
  0.050000  0.050000  0.050000      8.000000
  0.150000  0.050000  0.050000     24.000000
  0.250000  0.050000  0.050000     24.000000
  0.350000  0.050000  0.050000     24.000000
  0.450000  0.050000  0.050000     12.000000
 -0.050000  0.050000  0.050000      6.000000
  0.150000  0.150000  0.050000     24.000000
  0.250000  0.150000  0.050000     48.000000
  0.350000  0.150000  0.050000     48.000000
 -0.150000  0.150000  0.050000     24.000000
  0.250000  0.250000  0.050000     24.000000
  0.350000  0.250000  0.050000     24.000000
 -0.250000  0.250000  0.050000     24.000000
 -0.150000  0.250000  0.050000     24.000000
 -0.350000  0.350000  0.050000     24.000000
 -0.250000  0.350000  0.050000     48.000000
 -0.450000  0.450000  0.050000     24.000000
 -0.350000  0.450000  0.050000     48.000000
 -0.250000  0.450000  0.050000     24.000000
 -0.450000 -0.450000  0.050000     24.000000
 -0.350000 -0.450000  0.050000     48.000000
 -0.350000 -0.350000  0.050000      8.000000
  0.150000  0.150000  0.150000      8.000000
  0.250000  0.150000  0.150000     24.000000
  0.350000  0.150000  0.150000     12.000000
 -0.150000  0.150000  0.150000      6.000000
  0.250000  0.250000  0.150000     24.000000
 -0.250000  0.250000  0.150000     24.000000
 -0.350000  0.350000  0.150000     24.000000
 -0.250000  0.350000  0.150000     24.000000
 -0.450000  0.450000  0.150000     24.000000
 -0.350000  0.450000  0.150000     48.000000
 -0.450000 -0.450000  0.150000     24.000000
 -0.350000 -0.450000  0.150000     24.000000
  0.250000  0.250000  0.250000      2.000000
 -0.250000  0.250000  0.250000      6.000000
 -0.350000  0.350000  0.250000     24.000000
 -0.450000  0.450000  0.250000     24.000000
 -0.350000  0.450000  0.250000     24.000000
 -0.450000 -0.450000  0.250000     24.000000
 -0.350000  0.350000  0.350000      6.000000
 -0.450000  0.450000  0.350000     24.000000
 -0.450000 -0.450000  0.350000      8.000000
 -0.450000  0.450000  0.450000      6.000000

 Following cartesian coordinates:
            Coordinates               Weight
  0.100000  0.100000  0.100000      8.000000
  0.100000  0.200000  0.200000     24.000000
  0.100000  0.300000  0.300000     24.000000
  0.100000  0.400000  0.400000     24.000000
  0.100000  0.500000  0.500000     12.000000
  0.100000  0.000000  0.000000      6.000000
  0.200000  0.200000  0.300000     24.000000
  0.200000  0.300000  0.400000     48.000000
  0.200000  0.400000  0.500000     48.000000
  0.200000 -0.100000  0.000000     24.000000
  0.300000  0.300000  0.500000     24.000000
  0.300000  0.400000  0.600000     24.000000
  0.300000 -0.200000  0.000000     24.000000
  0.300000 -0.100000  0.100000     24.000000
  0.400000 -0.300000  0.000000     24.000000
  0.400000 -0.200000  0.100000     48.000000
  0.500000 -0.400000  0.000000     24.000000
  0.500000 -0.300000  0.100000     48.000000
  0.500000 -0.200000  0.200000     24.000000
 -0.400000 -0.400000 -0.900000     24.000000
 -0.400000 -0.300000 -0.800000     48.000000
 -0.300000 -0.300000 -0.700000      8.000000
  0.300000  0.300000  0.300000      8.000000
  0.300000  0.400000  0.400000     24.000000
  0.300000  0.500000  0.500000     12.000000
  0.300000  0.000000  0.000000      6.000000
  0.400000  0.400000  0.500000     24.000000
  0.400000 -0.100000  0.000000     24.000000
  0.500000 -0.200000  0.000000     24.000000
  0.500000 -0.100000  0.100000     24.000000
  0.600000 -0.300000  0.000000     24.000000
  0.600000 -0.200000  0.100000     48.000000
 -0.300000 -0.300000 -0.900000     24.000000
[...]
   0.20000000  0.40000000  0.50000000       0.048
   0.20000000 -0.10000000  0.00000000       0.024
   0.30000000  0.30000000  0.50000000       0.024
   0.30000000  0.40000000  0.60000000       0.024
   0.30000000 -0.20000000  0.00000000       0.024
   0.30000000 -0.10000000  0.10000000       0.024
   0.40000000 -0.30000000  0.00000000       0.024
   0.40000000 -0.20000000  0.10000000       0.048
   0.50000000 -0.40000000  0.00000000       0.024
   0.50000000 -0.30000000  0.10000000       0.048
   0.50000000 -0.20000000  0.20000000       0.024
  -0.40000000 -0.40000000 -0.90000000       0.024
  -0.40000000 -0.30000000 -0.80000000       0.048
  -0.30000000 -0.30000000 -0.70000000       0.008
   0.30000000  0.30000000  0.30000000       0.008
   0.30000000  0.40000000  0.40000000       0.024
   0.30000000  0.50000000  0.50000000       0.012
   0.30000000  0.00000000  0.00000000       0.006
   0.40000000  0.40000000  0.50000000       0.024
   0.40000000 -0.10000000  0.00000000       0.024
   0.50000000 -0.20000000  0.00000000       0.024
   0.50000000 -0.10000000  0.10000000       0.024
   0.60000000 -0.30000000  0.00000000       0.024
   0.60000000 -0.20000000  0.10000000       0.048
  -0.30000000 -0.30000000 -0.90000000       0.024
  -0.30000000 -0.20000000 -0.80000000       0.024
   0.50000000  0.50000000  0.50000000       0.002
   0.50000000  0.00000000  0.00000000       0.006
   0.60000000 -0.10000000  0.00000000       0.024
   0.70000000 -0.20000000  0.00000000       0.024
   0.70000000 -0.10000000  0.10000000       0.024
  -0.20000000 -0.20000000 -0.90000000       0.024
   0.70000000  0.00000000  0.00000000       0.006
   0.80000000 -0.10000000  0.00000000       0.024
  -0.10000000 -0.10000000 -0.90000000       0.008
   0.90000000  0.00000000  0.00000000       0.006

 k-points in reciprocal lattice and weights: 10*10*10
   0.05000000  0.05000000  0.05000000       0.008
   0.15000000  0.05000000  0.05000000       0.024
   0.25000000  0.05000000  0.05000000       0.024
   0.35000000  0.05000000  0.05000000       0.024
   0.45000000  0.05000000  0.05000000       0.012
  -0.05000000  0.05000000  0.05000000       0.006
   0.15000000  0.15000000  0.05000000       0.024
   0.25000000  0.15000000  0.05000000       0.048
   0.35000000  0.15000000  0.05000000       0.048
  -0.15000000  0.15000000  0.05000000       0.024
   0.25000000  0.25000000  0.05000000       0.024
   0.35000000  0.25000000  0.05000000       0.024
  -0.25000000  0.25000000  0.05000000       0.024
  -0.15000000  0.25000000  0.05000000       0.024
  -0.35000000  0.35000000  0.05000000       0.024
  -0.25000000  0.35000000  0.05000000       0.048
  -0.45000000  0.45000000  0.05000000       0.024
  -0.35000000  0.45000000  0.05000000       0.048
  -0.25000000  0.45000000  0.05000000       0.024
  -0.45000000 -0.45000000  0.05000000       0.024
  -0.35000000 -0.45000000  0.05000000       0.048
  -0.35000000 -0.35000000  0.05000000       0.008
   0.15000000  0.15000000  0.15000000       0.008
   0.25000000  0.15000000  0.15000000       0.024
   0.35000000  0.15000000  0.15000000       0.012
  -0.15000000  0.15000000  0.15000000       0.006
   0.25000000  0.25000000  0.15000000       0.024
  -0.25000000  0.25000000  0.15000000       0.024
  -0.35000000  0.35000000  0.15000000       0.024
  -0.25000000  0.35000000  0.15000000       0.024
  -0.45000000  0.45000000  0.15000000       0.024
  -0.35000000  0.45000000  0.15000000       0.048
  -0.45000000 -0.45000000  0.15000000       0.024
  -0.35000000 -0.45000000  0.15000000       0.024
   0.25000000  0.25000000  0.25000000       0.002
  -0.25000000  0.25000000  0.25000000       0.006
  -0.35000000  0.35000000  0.25000000       0.024
  -0.45000000  0.45000000  0.25000000       0.024
  -0.35000000  0.45000000  0.25000000       0.024
  -0.45000000 -0.45000000  0.25000000       0.024
  -0.35000000  0.35000000  0.35000000       0.006
  -0.45000000  0.45000000  0.35000000       0.024
  -0.45000000 -0.45000000  0.35000000       0.008
  -0.45000000  0.45000000  0.45000000       0.006

 position of ions in fractional coordinates (direct lattice)
   0.00000000  0.00000000  0.00000000

 position of ions in cartesian coordinates  (Angst):
   0.00000000  0.00000000  0.00000000

 k-point  1 :   0.0500 0.0500 0.0500  plane waves:     213
 k-point  2 :   0.1500 0.0500 0.0500  plane waves:     210
 k-point  3 :   0.2500 0.0500 0.0500  plane waves:     205
 k-point  4 :   0.3500 0.0500 0.0500  plane waves:     207
 k-point  5 :   0.4500 0.0500 0.0500  plane waves:     212
 k-point  6 :  -0.0500 0.0500 0.0500  plane waves:     213
 k-point  7 :   0.1500 0.1500 0.0500  plane waves:     206
 k-point  8 :   0.2500 0.1500 0.0500  plane waves:     210
 k-point  9 :   0.3500 0.1500 0.0500  plane waves:     210
 k-point 10 :  -0.1500 0.1500 0.0500  plane waves:     210
 k-point 11 :   0.2500 0.2500 0.0500  plane waves:     214
 k-point 12 :   0.3500 0.2500 0.0500  plane waves:     214
 k-point 13 :  -0.2500 0.2500 0.0500  plane waves:     211
 k-point 14 :  -0.1500 0.2500 0.0500  plane waves:     211
 k-point 15 :  -0.3500 0.3500 0.0500  plane waves:     210
 k-point 16 :  -0.2500 0.3500 0.0500  plane waves:     209
 k-point 17 :  -0.4500 0.4500 0.0500  plane waves:     209
 k-point 18 :  -0.3500 0.4500 0.0500  plane waves:     211
 k-point 19 :  -0.2500 0.4500 0.0500  plane waves:     216
 k-point 20 :  -0.4500-0.4500 0.0500  plane waves:     214
 k-point 21 :  -0.3500-0.4500 0.0500  plane waves:     215
 k-point 22 :  -0.3500-0.3500 0.0500  plane waves:     212
 k-point 23 :   0.1500 0.1500 0.1500  plane waves:     210
 k-point 24 :   0.2500 0.1500 0.1500  plane waves:     212
 k-point 25 :   0.3500 0.1500 0.1500  plane waves:     210
 k-point 26 :  -0.1500 0.1500 0.1500  plane waves:     213
 k-point 27 :   0.2500 0.2500 0.1500  plane waves:     212
 k-point 28 :  -0.2500 0.2500 0.1500  plane waves:     210
 k-point 29 :  -0.3500 0.3500 0.1500  plane waves:     215
 k-point 30 :  -0.2500 0.3500 0.1500  plane waves:     213
 k-point 31 :  -0.4500 0.4500 0.1500  plane waves:     211
 k-point 32 :  -0.3500 0.4500 0.1500  plane waves:     215
 k-point 33 :  -0.4500-0.4500 0.1500  plane waves:     212
 k-point 34 :  -0.3500-0.4500 0.1500  plane waves:     213
 k-point 35 :   0.2500 0.2500 0.2500  plane waves:     216
 k-point 36 :  -0.2500 0.2500 0.2500  plane waves:     209
 k-point 37 :  -0.3500 0.3500 0.2500  plane waves:     214
 k-point 38 :  -0.4500 0.4500 0.2500  plane waves:     216
 k-point 39 :  -0.3500 0.4500 0.2500  plane waves:     220
 k-point 40 :  -0.4500-0.4500 0.2500  plane waves:     218
 k-point 41 :  -0.3500 0.3500 0.3500  plane waves:     220
 k-point 42 :  -0.4500 0.4500 0.3500  plane waves:     220
 k-point 43 :  -0.4500-0.4500 0.3500  plane waves:     224
 k-point 44 :  -0.4500 0.4500 0.4500  plane waves:     228

 maximum and minimum number of plane-waves per node :       228      205

 maximum number of plane-waves:       228
 maximum index in each direction:
   IXMAX=    4   IYMAX=    4   IZMAX=    3
   IXMIN=   -4   IYMIN=   -4   IZMIN=   -4

 serial   3D FFT for wavefunctions
 parallel 3D FFT for charge:
    minimum data exchange during FFTs selected (reduces bandwidth)

 Broyden mixing: mesh for mixing (old mesh)
   NGX =  7   NGY =  7   NGZ =  7
  (NGX  = 24   NGY  = 24   NGZ  = 24)
  gives a total of    343 points

 initial charge density was supplied:
 charge density of overlapping atoms calculated
 number of electron      11.0000000 magnetization
 keeping initial charge density in first step

 Maximum index for augmentation-charges          345 (set IRDMAX)

 First call to EWALD:  gamma=   0.677
 Maximum number of real-space cells 3x 3x 3
 Maximum number of reciprocal cells 3x 3x 3

--------------------------------------- Iteration      1(   1)  ---------------------------------------

 BZINTS: Fermi energy:  5.554490; 11.000000 electrons
         Band energy:-124.393098;  BLOECHL correction: -0.116581

 eigenvalue-minimisations  :  4840
 total energy-change (2. order) :-0.1057456E+02  (-0.5531466E+03)
 number of electron      11.0000000 magnetization
 augmentation part       11.0000000 magnetization

 Free energy of the ion-electron system (eV)
  alpha Z        PSCENC =       124.80261925
  Ewald energy   TEWEN  =      -960.51057943
  -Hartree energ DENC   =      -135.96918557
  -exchange      EXHF   =         0.00000000
  -V(xc)+E(xc)   XCENC  =        27.29587705
  PAW double counting   =       833.59079063     -821.75412581
  entropy T*S    EENTRO =         0.00000000
  eigenvalues    EBANDS =      -124.39309806
  atomic energy  EATOM  =      1046.36313925
  Solvation  Ediel_sol  =         0.00000000
  free energy    TOTEN  =       -10.57456269 eV

  energy without entropy =      -10.57456269  energy(sigma->0) =      -10.57456269

[...]

 eigenvalue-minimisations  :  3960
 total energy-change (2. order) :-0.7316885E-09  (-0.8600468E-09)
 number of electron      11.0000000 magnetization
 augmentation part       11.0000000 magnetization

[...]

 eigenvalue-minimisations  :  5880
 total energy-change (2. order) : 0.2310117E-09  (-0.1330330E-12)
 number of electron      10.9999986 magnetization
 augmentation part        3.8886172 magnetization

 Broyden mixing:
  rms(total) = 0.18216E+01    rms(broyden)= 0.18215E+01
  rms(prec ) = 0.23385E+01
  weight for this iteration     100.00

[...]

 eigenvalues of (default mixing * dielectric matrix)
  average eigenvalue GAMMA=   1.8124
  1.8124

[...]

 Broyden mixing:
  rms(total) = 0.12055E-03    rms(broyden)= 0.12054E-03
  rms(prec ) = 0.13991E-03
  weight for this iteration     100.00

 eigenvalues of (default mixing * dielectric matrix)
  average eigenvalue GAMMA=   1.8582
  2.6192  2.4524  2.4524  1.6053  1.0255  0.9945

[...]

--------------------------------------- Iteration      1(  12)  ---------------------------------------

 BZINTS: Fermi energy:  4.853249; 11.000000 electrons
         Band energy:-136.375876;  BLOECHL correction: -0.110328

 eigenvalue-minimisations  :  2360
 total energy-change (2. order) : 0.6499931E-08  (-0.1424711E-08)
 number of electron      10.9999986 magnetization
 augmentation part        4.0301118 magnetization

 Free energy of the ion-electron system (eV)
  alpha Z        PSCENC =       124.80261925
  Ewald energy   TEWEN  =      -960.51057943
  -Hartree energ DENC   =      -120.21270692
  -exchange      EXHF   =         0.00000000
  -V(xc)+E(xc)   XCENC  =        26.44144511
  PAW double counting   =      1501.12450502    -1492.78547024
  entropy T*S    EENTRO =         0.00000000
  eigenvalues    EBANDS =      -136.37587646
  atomic energy  EATOM  =      1046.36313925
  Solvation  Ediel_sol  =         0.00000000
  free energy    TOTEN  =       -11.15292442 eV

  energy without entropy =      -11.15292442  energy(sigma->0) =      -11.15292442

 average (electrostatic) potential at core
  the test charge radii are     1.2165
  (the norm of the test charge is              1.0000)
       1 -34.8966

 E-fermi :   4.8532     XC(G=0): -12.6465     alpha+bet :-12.9149

 k-point     1 :       0.0500    0.0500    0.0500
  band No.  band energies     occupation
      1     -24.9092      2.00000
      2     -24.7076      2.00000
      3     -24.7076      2.00000
      4      -0.4868      2.00000
      5       4.8787      1.25510
      6       4.8787      0.63847
      7       5.8947      0.00000
      8       7.8890      0.00000
      9       7.8890      0.00000
     10      20.8150      0.00000
     11      21.4044      0.00000
     12      21.4044      0.00000
     13      28.6500      0.00000
     14      28.6500      0.00000
     15      31.0766      0.00000
     16      36.6605      0.00000
     17      36.6605      0.00000
     18      38.2687      0.00000
     19      40.9608      0.00000
     20      40.9608      0.00000
     21      42.1015      0.00000
     22      45.8386      0.00000
     23      53.8748      0.00000
     24      53.8748      0.00000
     25      54.4640      0.00000
     26      60.3630      0.00000
     27      60.3630      0.00000
     28      64.7653      0.00000
     29      66.3792      0.00000
     30      66.3792      0.00000
     31      67.1112      0.00000
     32      69.2328      0.00000
     33      69.9195      0.00000
     34      69.9195      0.00000
     35      71.5144      0.00000
     36      74.3320      0.00000
     37      74.3320      0.00000
     38      76.2718      0.00000
     39      77.6341      0.00000
     40      77.6341      0.00000

[...]

 k-point    44 :      -0.4500    0.4500    0.4500
  band No.  band energies     occupation
      1     -25.6323      2.00000
      2     -25.6058      2.00000
      3     -25.6058      2.00000
      4       1.1935      2.00000
      5       1.2608      2.00000
      6       9.7749      0.00000
      7       9.7750      0.00000
      8      10.2752      0.00000
      9      13.6491      0.00000
     10      15.1297      0.00000
     11      15.1297      0.00000
     12      23.7991      0.00000
     13      25.8167      0.00000
     14      25.8243      0.00000
     15      30.3476      0.00000
     16      40.8509      0.00000
     17      40.8509      0.00000
     18      41.4835      0.00000
     19      42.5437      0.00000
     20      46.0263      0.00000
     21      46.0263      0.00000
     22      46.0458      0.00000
     23      52.2261      0.00000
     24      53.7296      0.00000
     25      54.5711      0.00000
     26      54.5712      0.00000
     27      56.1177      0.00000
     28      56.1177      0.00000
     29      56.7639      0.00000
     30      58.1044      0.00000
     31      59.7380      0.00000
     32      61.0884      0.00000
     33      61.0884      0.00000
     34      62.2702      0.00000
     35      63.1211      0.00000
     36      64.8976      0.00000
     37      64.8976      0.00000
     38      68.3620      0.00000
     39      94.2242      0.00000
     40      94.2251      0.00000

 soft charge-density along one line, spin component           1
         0         1         2         3         4         5         6         7         8         9
 total charge-density along one line

------------------------ aborting loop because EDIFF is reached ----------------------------------------

  FORCE on cell =-STRESS in cart. coord.  units (eV):
  Direction    XX          YY          ZZ          XY          YZ          ZX
  Alpha Z   124.80262   124.80262   124.80262
  Ewald    -320.17018  -320.17018  -320.17018    -0.00000    -0.00000     0.00000
  Hartree    40.07090    40.07090    40.07090     0.00000     0.00000     0.00000
  E(xc)     -46.89157   -46.89157   -46.89157    -0.00000    -0.00000    -0.00000
  Local     102.78868   102.78868   102.78868    -0.00000    -0.00000    -0.00000
  n-local   -43.12717   -42.29707   -40.65805     3.32515    -2.38197    -2.92242
  augment    26.16453    26.16453    26.16453    -0.00000    -0.00000    -0.00000
  Kinetic   114.02383   112.52633   116.82226    -0.39781     1.00729     1.60687
  Fock        0.00000     0.00000     0.00000     0.00000     0.00000     0.00000
  Total      -0.80499    -0.80499    -0.80499     0.00000     0.00000     0.00000
  in kB     -71.72534   -71.72534   -71.72534     0.00000     0.00000     0.00000

 VOLUME and BASIS-vectors are now :
  energy-cutoff  :      300.00
  volume of cell :       17.98
      direct lattice vectors                 reciprocal lattice vectors
    -1.650400000  1.650400000  1.650400000     0.000000000  0.302956859  0.302956859
     1.650400000 -1.650400000  1.650400000     0.302956859  0.000000000  0.302956859
     1.650400000  1.650400000 -1.650400000     0.302956859  0.302956859  0.000000000

  length of vectors
     2.858576653  2.858576653  2.858576653     0.428445699  0.428445699  0.428445699

 FORCES acting on ions
    electron-ion (+dipol)            ewald-force                    non-local-force                 convergence-correction
   0.375E-16 0.826E-15 0.244E-14   0.544E-15 -.107E-14 -.107E-14   0.404E-26 0.137E-25 0.727E-26   0.920E-14 0.288E-14 -.162E-14
   0.375E-16 0.826E-15 0.244E-14   0.544E-15 -.107E-14 -.107E-14   0.404E-26 0.137E-25 0.727E-26   0.920E-14 0.288E-14 -.162E-14

 POSITION                                       TOTAL-FORCE (eV/Angst)
      0.00000      0.00000      0.00000         0.000000     -0.000000      0.000000
    total drift:                                0.000000      0.000000     -0.000000

  FREE ENERGIE OF THE ION-ELECTRON SYSTEM (eV)
  free  energy   TOTEN  =       -11.15292442 eV

  energy  without entropy=      -11.15292442  energy(sigma->0) =      -11.15292442

 writing wavefunctions
 BZINTS: Fermi energy:  4.853249; 11.000000 electrons
         Band energy:-136.375876;  BLOECHL correction: -0.110328