 vasp.5.3.5 31Mar14 (build Dec 14 2018 19:18:10) complex

 INCAR:
 POTCAR:    PAW Ga
 POTCAR:    PAW As
 POTCAR:    PAW Ga
   VRHFIN =Ga: s2p1

   TITEL  = PAW Ga
   POMASS =   69.723; ZVAL   =   13.000    mass and valenz
   ENMAX  =  282.829; ENMIN  =  212.121 eV
   QCUT   =   -4.559; QGAM   =    9.119    optimization parameters

   Description
     l     E      TYP  RCUT    TYP  RCUT
     2   .000     23  2.300
     2  -.400     23  2.300
     0   .000     23  2.300
     0   .000     23  2.300
     1   .000     23  2.300
     1   .000     23  2.300
     3  -.100      7  2.300

 POTCAR:    PAW As
   VRHFIN =As: s2p3

   TITEL  = PAW As
   POMASS =   74.922; ZVAL   =    5.000    mass and valenz
   ENMAX  =  208.870; ENMIN  =  156.653 eV
   QCUT   =   -3.918; QGAM   =    7.836    optimization parameters

   Description
     l     E      TYP  RCUT    TYP  RCUT
     0   .000     23  2.100
     0   .000     23  2.100
     1   .000     23  2.100
     1   .000     23  2.100
     2   .000     23  2.100
     3  -.100      7  2.100

  PAW Ga                                :
  PAW As                                :

 POSCAR: GaAs in Zincblend structure
  positions in direct lattice
  velocities in cartesian coordinates
 exchange correlation table for  LEXCH =        2
   RHO(1)=    0.500       N(1)  =     2000
   RHO(2)=  100.500       N(2)  =     4000

 ion  position               nearest neighbor table
   1  0.000  0.000  0.000-   2 2.45   2 2.45   2 2.45   2 2.45
   2  0.250  0.250  0.250-   1 2.45   1 2.45   1 2.45   1 2.45

  LATTYP: Found a face centered cubic cell.
 ALAT       =     5.6500000000

  Lattice vectors:

 A1 = (   2.8250000000,   2.8250000000,   0.0000000000)
 A2 = (   0.0000000000,   2.8250000000,   2.8250000000)
 A3 = (   2.8250000000,   0.0000000000,   2.8250000000)

Analysis of symmetry for initial positions (statically):
 Subroutine PRICEL returns:
 Original cell was already a primitive cell.

 Routine SETGRP: Setting up the symmetry group for a
 face centered cubic supercell.

 Subroutine GETGRP returns: Found 24 space group operations
 (whereof 24 operations were pure point group operations)
 out of a pool of 48 trial point group operations.

The static configuration has the point symmetry T_d .

Analysis of symmetry for dynamics (positions and initial velocities):
 Subroutine PRICEL returns:
 Original cell was already a primitive cell.

 Routine SETGRP: Setting up the symmetry group for a
 face centered cubic supercell.

 Subroutine GETGRP returns: Found 24 space group operations
 (whereof 24 operations were pure point group operations)
 out of a pool of 48 trial point group operations.

The dynamic configuration has the point symmetry T_d .

 KPOINTS: K-Path for diamond GaAs.
  interpolating k-points between supplied coordinates
  k-points in reciprocal lattice
Space group operators:
 irot       det(A)        alpha          n_x          n_y          n_z        tau_x        tau_y        tau_z
    1     1.000000     0.000000     1.000000     0.000000     0.000000     0.000000     0.000000     0.000000
    2     1.000000   120.000000    -0.577350    -0.577350    -0.577350     0.000000     0.000000     0.000000
    3     1.000000   120.000000     0.577350     0.577350     0.577350     0.000000     0.000000     0.000000
    4    -1.000000    90.000000     0.000000    -1.000000     0.000000     0.000000     0.000000     0.000000
    5    -1.000000   180.000000     0.707107     0.707107     0.000000     0.000000     0.000000     0.000000
    6    -1.000000    90.000000     1.000000     0.000000     0.000000     0.000000     0.000000     0.000000
    7     1.000000   180.000000     0.000000     1.000000     0.000000     0.000000     0.000000     0.000000
    8     1.000000   120.000000     0.577350     0.577350    -0.577350     0.000000     0.000000     0.000000
    9     1.000000   120.000000     0.577350    -0.577350    -0.577350     0.000000     0.000000     0.000000
   10    -1.000000    90.000000     0.000000     1.000000     0.000000     0.000000     0.000000     0.000000
   11    -1.000000    90.000000     0.000000     0.000000    -1.000000     0.000000     0.000000     0.000000
   12    -1.000000   180.000000     0.000000     0.707107     0.707107     0.000000     0.000000     0.000000
   13     1.000000   120.000000    -0.577350     0.577350     0.577350     0.000000     0.000000     0.000000
   14     1.000000   120.000000    -0.577350     0.577350    -0.577350     0.000000     0.000000     0.000000
   15     1.000000   180.000000     0.000000     0.000000     1.000000     0.000000     0.000000     0.000000
   16    -1.000000    90.000000    -1.000000     0.000000     0.000000     0.000000     0.000000     0.000000
   17    -1.000000   180.000000     0.707107     0.000000     0.707107     0.000000     0.000000     0.000000
   18    -1.000000    90.000000     0.000000     0.000000     1.000000     0.000000     0.000000     0.000000
   19     1.000000   120.000000    -0.577350    -0.577350     0.577350     0.000000     0.000000     0.000000
   20     1.000000   180.000000     1.000000     0.000000     0.000000     0.000000     0.000000     0.000000
   21     1.000000   120.000000     0.577350    -0.577350     0.577350     0.000000     0.000000     0.000000
   22    -1.000000   180.000000     0.707107    -0.707107     0.000000     0.000000     0.000000     0.000000
   23    -1.000000   180.000000     0.707107     0.000000    -0.707107     0.000000     0.000000     0.000000
   24    -1.000000   180.000000     0.000000    -0.707107     0.707107     0.000000     0.000000     0.000000

 I would recommend the setting:
   dimension x,y,z NGX =    16 NGY =   16 NGZ =   16
 SYSTEM =  GaAs
 POSCAR =  GaAs in Zincblend structure

 Startparameter for this run:
   NWRITE =      2    write-flag & timer
   PREC   = normal    normal or accurate (medium, high low for compatibility)
   ISTART =      0    job   : 0-new  1-cont  2-samecut
   ICHARG =     11    charge: 1-file 2-atom 10-const
   ISPIN  =      1    spin polarized calculation?
   LNONCOLLINEAR =      F non collinear calculations
   LSORBIT =      F    spin-orbit coupling
   INIWAV =      1    electr: 0-lowe 1-rand  2-diag
   LASPH  =      F    aspherical Exc in radial PAW
   METAGGA=      F    non-selfconsistent MetaGGA calc.

 Electronic Relaxation 1
   ENCUT  =  282.8 eV  20.79 Ry    4.56 a.u.   5.48  5.48  5.48*2*pi/ulx,y,z
   ENINI  =  282.8     initial cutoff
   ENAUG  =  490.7 eV  augmentation charge cutoff
   NELM   =     60;   NELMIN=  2; NELMDL=  0     # of ELM steps
   EDIFF  = 0.1E-03   stopping-criterion for ELM
   LREAL  =      F    real-space projection
   NLSPLINE    = F    spline interpolate recip. space projectors
   LCOMPAT=      F    compatible to vasp.4.4
   GGA_COMPAT  = T    GGA compatible to vasp.4.4-vasp.4.6
   LMAXPAW     = -100 max onsite density
   LMAXMIX     =    2 max onsite mixed and CHGCAR
   VOSKOWN=      0    Vosko Wilk Nusair interpolation
   ROPT   =    0.00000   0.00000
 Ionic relaxation
   EDIFFG = 0.1E-02   stopping-criterion for IOM
   NSW    =      0    number of steps for IOM
   NBLOCK =      1;   KBLOCK =      1    inner block; outer block
   IBRION =     -1    ionic relax: 0-MD 1-quasi-New 2-CG
   NFREE  =      0    steps in history (QN), initial steepest desc. (CG)
   ISIF   =      2    stress and relaxation
   IWAVPR =      0    prediction:  0-non 1-charg 2-wave 3-comb
   ISYM   =      2    0-nonsym 1-usesym 2-fastsym
   LCORR  =      T    Harris-Foulkes like correction to forces

   POTIM  = 0.5000    time-step for ionic-motion
   TEIN   =    0.0    initial temperature
   TEBEG  =    0.0;   TEEND  =   0.0 temperature during run
   SMASS  =  -3.00    Nose mass-parameter (am)
   estimated Nose-frequenzy (Omega)   =  0.10E-29 period in steps =****** mass=  -0.365E-27a.u.
   SCALEE = 1.0000    scale energy and forces
   NPACO  =    256;   APACO  = 16.0  distance and # of slots for P.C.
   PSTRESS=    0.0 pullay stress

  Mass of Ions in am
   POMASS =  69.72 74.92
  Ionic Valenz
   ZVAL   =  13.00  5.00
  Atomic Wigner-Seitz radii
  virtual crystal weights
   VCA    =   1.00  1.00
   NELECT =      18.0000    total number of electrons
   NUPDOWN=      -1.0000    fix difference up-down

 DOS related values:
   EMIN   =  10.00;   EMAX   =-10.00  energy-range for DOS
   EFERMI =   0.00
   ISMEAR =     0;   SIGMA  =   0.20  broadening in eV -4-tet -1-fermi 0-gaus

 Electronic relaxation 2 (details)
   IALGO  =     38    algorithm
   LDIAG  =      T    sub-space diagonalisation (order eigenvalues)
   LSUBROT=      F    optimize rotation matrix (better conditioning)
   TURBO    =      0    0=normal 1=particle mesh
   IRESTART =      0    0=no restart 2=restart with 2 vectors
   NREBOOT  =      0    no. of reboots
   NMIN     =      0    reboot dimension
   EREF     =   0.00    reference energy to select bands
   IMIX   =      4    mixing-type and parameters
     AMIX     =   0.40;   BMIX     =  1.00
     AMIX_MAG =   1.60;   BMIX_MAG =  1.00
     AMIN     =   0.10
     WC   =   100.;   INIMIX=   1;  MIXPRE=   1;  MAXMIX= -45

 Intra band minimization:
   WEIMIN = 0.0000     energy-eigenvalue tresh-hold
   EBREAK =  0.19E-05  absolut break condition
   DEPER  =   0.30     relativ break condition

   TIME   =   0.40     timestep for ELM

  volume/ion in A,a.u.               =      22.55       152.14
  Fermi-wavevector in a.u.,A,eV,Ry     =   1.205417  2.277907 19.769666  1.453029
  Thomas-Fermi vector in A             =   2.341114

 Write flags
   LWAVE  =      T    write WAVECAR
   LCHARG =      F    write CHGCAR
   LVTOT  =      F    write LOCPOT, total local potential
   LVHAR  =      F    write LOCPOT, Hartree potential only
   LELF   =      F    write electronic localiz. function (ELF)
   LORBIT =      0    0 simple, 1 ext, 2 COOP (PROOUT)

 Dipole corrections
   LMONO  =      F    monopole corrections only (constant potential shift)
   LDIPOL =      F    correct potential (dipole corrections)
   IDIPOL =      0    1-x, 2-y, 3-z, 4-all directions
   EPSILON=  1.0000000 bulk dielectric constant

 Exchange correlation treatment:
   GGA     =    --    GGA type
   VOSKOWN=      0    Vosko Wilk Nusair interpolation
   LHFCALC =     F    Hartree Fock is set to
   LHFONE  =     F    Hartree Fock one center treatment
   AEXX    =    0.0000 exact exchange contribution

 Linear response parameters
   LEPSILON=     F    determine dielectric tensor
   LRPA    =     F    only Hartree local field effects (RPA)
   LNABLA  =     F    use nabla operator in PAW spheres
   LVEL    =     F    velocity operator in full k-point grid
   LINTERFAST=   F  fast interpolation
   KINTER  =     0    interpolate to denser k-point grid
   CSHIFT  =0.1000    complex shift for real part using Kramers Kronig
   OMEGAMAX=  -1.0    maximum frequency
   DEG_THRESHOLD= 0.2000000E-02 threshold for treating states as degnerate
   RTIME   =    0.100 relaxation time in fs

 Orbital magnetization related:
   ORBITALMAG=     F  switch on orbital magnetization
   LCHIMAG   =     F  perturbation theory with respect to B field
   DQ        =  0.001000  dq finite difference perturbation B field

 Static calculation
[...]
  Direction    XX          YY          ZZ          XY          YZ          ZX
  Alpha Z    72.97671    72.97671    72.97671
  Ewald    -422.10289  -422.10289  -422.10289     0.00000     0.00000     0.00000
  Hartree   239.87544   239.87544   239.87544     0.00001     0.00001     0.00001
  E(xc)     -92.11389   -92.11389   -92.11389    -0.00001    -0.00001    -0.00001
  Local     111.64419   111.64419   111.64419     0.00127     0.00127     0.00127
  n-local    26.16338    27.96134    28.92690    -0.70869    -0.70865    -1.81564
  augment   -50.83174   -50.83174   -50.83174    -0.00078    -0.00078    -0.00078
  Kinetic   114.69744   119.11216   119.48619    -1.39274    -1.39279    -2.87181
  Fock        0.00000     0.00000     0.00000     0.00000     0.00000     0.00000
  Total       4.89694     4.89694     4.89694     0.00000    -0.00000     0.00000
  in kB     174.00019   174.00019   174.00019     0.00000    -0.00000     0.00000

 VOLUME and BASIS-vectors are now :
  energy-cutoff  :      282.83
  volume of cell :       45.09
      direct lattice vectors                 reciprocal lattice vectors
     2.825000000  2.825000000  0.000000000     0.176991150  0.176991150 -0.176991150
     0.000000000  2.825000000  2.825000000    -0.176991150  0.176991150  0.176991150
     2.825000000  0.000000000  2.825000000     0.176991150 -0.176991150  0.176991150

  length of vectors
     3.995153314  3.995153314  3.995153314     0.306557665  0.306557665  0.306557665

 FORCES acting on ions
    electron-ion (+dipol)            ewald-force                    non-local-force                 convergence-correction
   0.240E-05 0.240E-05 0.240E-05   -.817E-14 -.177E-13 -.172E-13   0.208E-16 0.278E-16 0.347E-16   -.141E-05 -.141E-05 -.141E-05
   -.185E-04 -.185E-04 -.185E-04   0.812E-14 0.165E-13 0.177E-13   0.000E+00 0.000E+00 0.000E+00   0.135E-06 0.135E-06 0.135E-06
   -.161E-04 -.161E-04 -.161E-04   -.455E-16 -.125E-14 0.449E-15   0.208E-16 0.278E-16 0.347E-16   -.128E-05 -.128E-05 -.128E-05

 POSITION                                       TOTAL-FORCE (eV/Angst)
      0.00000      0.00000      0.00000         0.000000      0.000000      0.000000
      1.41250      1.41250      1.41250        -0.000000     -0.000000     -0.000000
    total drift:                               -0.000017     -0.000017     -0.000017

  FREE ENERGIE OF THE ION-ELECTRON SYSTEM (eV)
  free  energy   TOTEN  =        -5.94996957 eV

  energy  without entropy=       -5.94123638  energy(sigma->0) =       -5.94560298

 writing wavefunctions

 plasma frequency squared (from intraband transitions)
       0.444       0.000       0.000
       0.000       0.444       0.000
       0.000       0.000       0.444

 electrical conductivity sigma (Mega S m-1) (frequency dependency in vasprun.xml)
       0.001      -0.000      -0.000
      -0.000       0.001       0.000
       0.000      -0.000       0.001

 plasma frequency squared (from intraband transitions)

 plasma frequency squared (from interband transitions, int dw w eps(2)(w)
     468.358       0.000       0.000
       0.000     468.358      -0.000
       0.000      -0.000     468.358
 plasma frequency squared  (valence only):     550.440

  frequency dependent IMAGINARY DIELECTRIC FUNCTION (independent particle, no local field effects)
     E(ev)      X         Y         Z        XY        YZ        ZX
    0.000000    0.000000    0.000000    0.000000    0.000000    0.000000    0.000000
    0.306445  617.972117  617.972117  617.972117   -0.000000   -0.000000   -0.000000
    0.612889  341.964025  341.964025  341.964025   -0.000000    0.000000   -0.000000
    0.919334  111.491177  111.491177  111.491177   -0.000000   -0.000000   -0.000000
    1.225779   61.309019   61.309019   61.309019    0.000000   -0.000000   -0.000000
    1.532224   48.968883   48.968883   48.968883    0.000000   -0.000000   -0.000000
    1.838668   86.520252   86.520252   86.520252    0.000000   -0.000000    0.000000
    2.145113   79.528720   79.528720   79.528720    0.000000    0.000000    0.000000
    2.451558   22.091756   22.091756   22.091756   -0.000000   -0.000000    0.000000
    2.758003   12.113260   12.113260   12.113260    0.000000    0.000000    0.000000
    3.064447   12.081908   12.081908   12.081908    0.000000   -0.000000   -0.000000
    3.370892   24.560553   24.560553   24.560553    0.000000   -0.000000    0.000000
    3.677337   57.122184   57.122184   57.122184    0.000000   -0.000000   -0.000000
    3.983781   49.214430   49.214430   49.214430    0.000000   -0.000000   -0.000000
    4.290226   34.158706   34.158706   34.158706    0.000000   -0.000000    0.000000
    4.596671   21.805424   21.805424   21.805424   -0.000000   -0.000000    0.000000
    4.903116   15.526933   15.526933   15.526933    0.000000    0.000000   -0.000000
    5.209560   11.118226   11.118226   11.118226    0.000000    0.000000    0.000000
    5.516005   12.925196   12.925196   12.925196    0.000000    0.000000    0.000000
    5.822450   10.818106   10.818106   10.818106   -0.000000    0.000000   -0.000000
    6.128895    4.552432    4.552432    4.552432    0.000000    0.000000    0.000000
    6.435339    2.960773    2.960773    2.960773   -0.000000   -0.000000   -0.000000
    6.741784    2.260613    2.260613    2.260613    0.000000    0.000000   -0.000000
    7.048229    1.811052    1.811052    1.811052    0.000000   -0.000000    0.000000
    7.354674    1.460901    1.460901    1.460901   -0.000000    0.000000    0.000000
    7.661118    1.340235    1.340235    1.340235   -0.000000   -0.000000   -0.000000
    7.967563    1.419122    1.419122    1.419122    0.000000   -0.000000    0.000000
    8.274008    1.416877    1.416877    1.416877    0.000000   -0.000000   -0.000000
    8.580452    1.296123    1.296123    1.296123    0.000000   -0.000000    0.000000
    8.886897    1.017284    1.017284    1.017284    0.000000   -0.000000    0.000000
    9.193342    0.957138    0.957138    0.957138   -0.000000   -0.000000    0.000000
    9.499787    0.748373    0.748373    0.748373    0.000000   -0.000000    0.000000
    9.806231    0.606858    0.606858    0.606858   -0.000000    0.000000    0.000000
   10.112676    0.445599    0.445599    0.445599   -0.000000    0.000000   -0.000000
   10.419121    0.384476    0.384476    0.384476   -0.000000    0.000000   -0.000000
   10.725566    0.357189    0.357189    0.357189    0.000000   -0.000000    0.000000
   11.032010    0.356621    0.356621    0.356621   -0.000000    0.000000    0.000000
   11.338455    0.354325    0.354325    0.354325    0.000000   -0.000000   -0.000000
   11.644900    0.392506    0.392506    0.392506    0.000000   -0.000000   -0.000000
   11.951344    0.389871    0.389871    0.389871    0.000000    0.000000    0.000000
   12.257789    0.293836    0.293836    0.293836   -0.000000   -0.000000    0.000000
   12.564234    0.258918    0.258918    0.258918    0.000000   -0.000000    0.000000
   12.870679    0.206467    0.206467    0.206467    0.000000   -0.000000    0.000000
   13.177123    0.148427    0.148427    0.148427    0.000000   -0.000000   -0.000000
   13.483568    0.141449    0.141449    0.141449   -0.000000    0.000000    0.000000
   13.790013    0.133747    0.133747    0.133747   -0.000000    0.000000   -0.000000
   14.096458    0.125273    0.125273    0.125273   -0.000000   -0.000000   -0.000000
   14.402902    0.117414    0.117414    0.117414   -0.000000    0.000000   -0.000000
   14.709347    0.086492    0.086492    0.086492    0.000000   -0.000000    0.000000
   15.015792    0.071782    0.071782    0.071782    0.000000   -0.000000   -0.000000
   15.322236    0.078885    0.078885    0.078885    0.000000   -0.000000   -0.000000
   15.628681    0.109640    0.109640    0.109640    0.000000   -0.000000   -0.000000
   15.935126    0.134093    0.134093    0.134093    0.000000   -0.000000    0.000000
   16.241571    0.205592    0.205592    0.205592    0.000000   -0.000000    0.000000
   16.548015    0.247946    0.247946    0.247946    0.000000    0.000000    0.000000
   16.854460    0.152977    0.152977    0.152977   -0.000000    0.000000    0.000000
   17.160905    0.113813    0.113813    0.113813   -0.000000    0.000000    0.000000
   17.467350    0.101724    0.101724    0.101724   -0.000000    0.000000   -0.000000
   17.773794    0.096789    0.096789    0.096789   -0.000000    0.000000   -0.000000
   18.080239    0.111303    0.111303    0.111303    0.000000   -0.000000    0.000000
[...]
   26.047802    0.007085    0.007085    0.007085    0.000000   -0.000000    0.000000
   26.354247    0.006431    0.006431    0.006431    0.000000   -0.000000    0.000000
   26.660691    0.006002    0.006002    0.006002    0.000000   -0.000000    0.000000
   26.967136    0.005668    0.005668    0.005668    0.000000   -0.000000    0.000000
   27.273581    0.005387    0.005387    0.005387    0.000000   -0.000000    0.000000
   27.580026    0.005142    0.005142    0.005142    0.000000   -0.000000    0.000000
   27.886470    0.004922    0.004922    0.004922    0.000000   -0.000000    0.000000
   28.192915    0.004722    0.004722    0.004722    0.000000   -0.000000    0.000000
   28.499360    0.004538    0.004538    0.004538    0.000000   -0.000000    0.000000
   28.805805    0.004366    0.004366    0.004366    0.000000   -0.000000    0.000000
   29.112249    0.004206    0.004206    0.004206    0.000000   -0.000000    0.000000
   29.418694    0.004056    0.004056    0.004056    0.000000   -0.000000    0.000000
   29.725139    0.003914    0.003914    0.003914    0.000000   -0.000000    0.000000
   30.031584    0.003780    0.003780    0.003780    0.000000   -0.000000    0.000000
   30.338028    0.003653    0.003653    0.003653    0.000000   -0.000000    0.000000

  frequency dependent      REAL DIELECTRIC FUNCTION (independent particle, no local field effects)
     E(ev)      X         Y         Z        XY        YZ        ZX
    0.000000  768.950194  768.950194  768.950194   -0.000000   -0.000000   -0.000000
    0.306445  417.510722  417.510722  417.510722   -0.000000   -0.000000   -0.000000
    0.612889 -138.483996 -138.483996 -138.483996   -0.000000   -0.000000   -0.000000
    0.919334  -93.789863  -93.789863  -93.789863    0.000000   -0.000000    0.000000
    1.225779  -34.418872  -34.418872  -34.418872    0.000000   -0.000000    0.000000
    1.532224   -0.382489   -0.382489   -0.382489    0.000000    0.000000    0.000000
    1.838668   17.368929   17.368929   17.368929    0.000000   -0.000000    0.000000
    2.145113  -55.388200  -55.388200  -55.388200   -0.000000    0.000000    0.000000
    2.451558  -40.301360  -40.301360  -40.301360   -0.000000    0.000000   -0.000000
    2.758003  -16.283685  -16.283685  -16.283685   -0.000000    0.000000   -0.000000
    3.064447    0.895923    0.895923    0.895923   -0.000000   -0.000000   -0.000000
    3.370892   19.655193   19.655193   19.655193   -0.000000   -0.000000   -0.000000
    3.677337    7.124025    7.124025    7.124025    0.000000   -0.000000   -0.000000
    3.983781  -20.201187  -20.201187  -20.201187   -0.000000   -0.000000    0.000000
    4.290226  -29.262174  -29.262174  -29.262174   -0.000000    0.000000    0.000000
    4.596671  -27.309258  -27.309258  -27.309258   -0.000000    0.000000   -0.000000
    4.903116  -24.222985  -24.222985  -24.222985    0.000000    0.000000    0.000000
    5.209560  -19.168821  -19.168821  -19.168821   -0.000000    0.000000    0.000000
    5.516005  -16.157589  -16.157589  -16.157589   -0.000000   -0.000000   -0.000000
    5.822450  -20.903354  -20.903354  -20.903354   -0.000000   -0.000000    0.000000
    6.128895  -18.011707  -18.011707  -18.011707   -0.000000   -0.000000   -0.000000
    6.435339  -14.724417  -14.724417  -14.724417   -0.000000   -0.000000   -0.000000
    6.741784  -12.381916  -12.381916  -12.381916   -0.000000    0.000000    0.000000
    7.048229  -10.821039  -10.821039  -10.821039   -0.000000    0.000000    0.000000
    7.354674   -9.340469   -9.340469   -9.340469   -0.000000    0.000000   -0.000000
    7.661118   -8.204211   -8.204211   -8.204211   -0.000000    0.000000   -0.000000
    7.967563   -7.272325   -7.272325   -7.272325   -0.000000    0.000000   -0.000000
    8.274008   -6.719951   -6.719951   -6.719951   -0.000000    0.000000    0.000000
    8.580452   -6.331587   -6.331587   -6.331587   -0.000000    0.000000    0.000000
    8.886897   -5.798088   -5.798088   -5.798088   -0.000000    0.000000   -0.000000
    9.193342   -5.351277   -5.351277   -5.351277   -0.000000    0.000000   -0.000000
    9.499787   -4.984514   -4.984514   -4.984514   -0.000000    0.000000   -0.000000
    9.806231   -4.586683   -4.586683   -4.586683   -0.000000    0.000000   -0.000000
   10.112676   -4.163942   -4.163942   -4.163942   -0.000000    0.000000   -0.000000
   10.419121   -3.778234   -3.778234   -3.778234   -0.000000    0.000000   -0.000000
   10.725566   -3.425090   -3.425090   -3.425090   -0.000000    0.000000   -0.000000
   11.032010   -3.129281   -3.129281   -3.129281   -0.000000    0.000000   -0.000000
   11.338455   -2.878637   -2.878637   -2.878637   -0.000000    0.000000   -0.000000
   11.644900   -2.666100   -2.666100   -2.666100   -0.000000    0.000000   -0.000000
   11.951344   -2.554774   -2.554774   -2.554774   -0.000000    0.000000   -0.000000
   12.257789   -2.402361   -2.402361   -2.402361   -0.000000    0.000000   -0.000000
   12.564234   -2.213337   -2.213337   -2.213337   -0.000000    0.000000   -0.000000
   12.870679   -2.084629   -2.084629   -2.084629   -0.000000    0.000000   -0.000000
   13.177123   -1.891894   -1.891894   -1.891894   -0.000000    0.000000   -0.000000
   13.483568   -1.728411   -1.728411   -1.728411   -0.000000    0.000000   -0.000000
   13.790013   -1.588887   -1.588887   -1.588887   -0.000000    0.000000   -0.000000
   14.096458   -1.463719   -1.463719   -1.463719   -0.000000    0.000000   -0.000000
   14.402902   -1.354121   -1.354121   -1.354121   -0.000000    0.000000   -0.000000
   14.709347   -1.241863   -1.241863   -1.241863   -0.000000    0.000000   -0.000000
   15.015792   -1.113304   -1.113304   -1.113304   -0.000000    0.000000   -0.000000
   15.322236   -0.986612   -0.986612   -0.986612   -0.000000    0.000000   -0.000000
   15.628681   -0.879064   -0.879064   -0.879064   -0.000000    0.000000   -0.000000
   15.935126   -0.787735   -0.787735   -0.787735   -0.000000    0.000000   -0.000000
   16.241571   -0.708092   -0.708092   -0.708092   -0.000000    0.000000   -0.000000
   16.548015   -0.753243   -0.753243   -0.753243   -0.000000    0.000000   -0.000000
   16.854460   -0.732556   -0.732556   -0.732556   -0.000000    0.000000   -0.000000
   17.160905   -0.637645   -0.637645   -0.637645   -0.000000    0.000000   -0.000000
   17.467350   -0.557856   -0.557856   -0.557856   -0.000000    0.000000   -0.000000
   17.773794   -0.469883   -0.469883   -0.469883   -0.000000    0.000000   -0.000000
   18.080239   -0.379054   -0.379054   -0.379054   -0.000000    0.000000   -0.000000
[...]
   26.047802    0.263649    0.263649    0.263649   -0.000000    0.000000   -0.000000
   26.354247    0.284221    0.284221    0.284221   -0.000000    0.000000   -0.000000
   26.660691    0.303222    0.303222    0.303222   -0.000000    0.000000   -0.000000
   26.967136    0.321077    0.321077    0.321077   -0.000000    0.000000   -0.000000
   27.273581    0.338000    0.338000    0.338000   -0.000000    0.000000   -0.000000
   27.580026    0.354123    0.354123    0.354123   -0.000000    0.000000   -0.000000
   27.886470    0.369536    0.369536    0.369536   -0.000000    0.000000   -0.000000
   28.192915    0.384308    0.384308    0.384308   -0.000000    0.000000   -0.000000
   28.499360    0.398491    0.398491    0.398491   -0.000000    0.000000   -0.000000
   28.805805    0.412130    0.412130    0.412130   -0.000000    0.000000   -0.000000
   29.112249    0.425261    0.425261    0.425261   -0.000000    0.000000   -0.000000
   29.418694    0.437916    0.437916    0.437916   -0.000000    0.000000   -0.000000
   29.725139    0.450125    0.450125    0.450125   -0.000000    0.000000   -0.000000
   30.031584    0.461911    0.461911    0.461911   -0.000000    0.000000   -0.000000
   30.338028    0.473298    0.473298    0.473298   -0.000000    0.000000   -0.000000

 The outermost node in the dielectric function lies at epsilon=  22.3

[...]

volume of typ            2:    16.7 %

total charge

[...]

orbital moment (x)

[...]

orbital moment (y)

[...]

orbital moment (z)

# of ion   s             p             d             tot
   1     0.000000E+00 -0.606323E-01 -0.179574E-01 -0.785897E-01
   2     0.000000E+00  0.864732E-01  0.900573E-02  0.954789E-01
tot      0.000000E+00  0.258409E-01 -0.895168E-02  0.168892E-01