 vasp.5.4.4.18Apr17-6-g9f103f2a35 (build May 20 2018 16:52:39) complex

 executed on             LinuxIFC date 2022.10.31  00:55:15

 INCAR:
 POTCAR:    PAW Ga
 POTCAR:    PAW As
 POTCAR:    PAW Ga
   VRHFIN =Ga: s2p1

   TITEL  = PAW Ga
   POMASS =   69.723; ZVAL   =    3.000    mass and valenz
   ENMAX  =  134.733; ENMIN  =  101.050 eV
   QCUT   =   -3.147; QGAM   =    6.294    optimization parameters

   Description
     l     E      TYP  RCUT    TYP  RCUT
     0   .000     23  2.600
     0   .000     23  2.600
     1   .000     23  2.600
     1   .000     23  2.600
     2   .100     23  2.600
     3  -.100      7  2.600

 POTCAR:    PAW As
   VRHFIN =As: s2p3

   TITEL  = PAW As
   POMASS =   74.922; ZVAL   =    5.000    mass and valenz
   ENMAX  =  208.733; ENMIN  =  156.550 eV
   QCUT   =   -3.917; QGAM   =    7.834    optimization parameters

   Description
     l     E      TYP  RCUT    TYP  RCUT
     0   .000     23  2.100
     0   .000     23  2.100
     1   .000     23  2.100
     1   .000     23  2.100
     2   .000     23  2.100
     3  -.100      7  2.100

  PAW Ga                                :
  PAW As                                :

 POSCAR: GaAs
  positions in direct lattice
 exchange correlation table for  LEXCH =        7
   RHO(1)=    0.500       N(1)  =     2000
   RHO(2)=  100.500       N(2)  =     4000

 ion  position               nearest neighbor table
   1  0.000  0.000  0.000-   2 2.49   2 2.49   2 2.49   2 2.49
   2  0.250  0.250  0.250-   1 2.49   1 2.49   1 2.49   1 2.49

  LATTYP: Found a face centered cubic cell.
 ALAT       =     5.7500000000

  Lattice vectors:

 A1 = (   0.0000000000,   2.8750000000,   2.8750000000)
 A2 = (   2.8750000000,   0.0000000000,   2.8750000000)
 A3 = (   2.8750000000,   2.8750000000,   0.0000000000)

Analysis of symmetry for initial positions (statically):
 Subroutine PRICEL returns:
 Original cell was already a primitive cell.

 Routine SETGRP: Setting up the symmetry group for a
 face centered cubic supercell.

 Subroutine GETGRP returns: Found 24 space group operations
 (whereof 24 operations were pure point group operations)
 out of a pool of 48 trial point group operations.

The static configuration has the point symmetry T_d .

Analysis of symmetry for dynamics (positions and initial velocities):
 Subroutine PRICEL returns:
 Original cell was already a primitive cell.

 Routine SETGRP: Setting up the symmetry group for a
 face centered cubic supercell.

 Subroutine GETGRP returns: Found 24 space group operations
 (whereof 24 operations were pure point group operations)
 out of a pool of 48 trial point group operations.

The dynamic configuration has the point symmetry T_d .

 Subroutine INISYM returns: Found 24 space group operations
 (whereof 24 operations are pure point group operations),
 and found     1 'primitive' translations

 KPOINTS: 30x30x30

Automatic generation of k-mesh.
Space group operators:
 irot       det(A)        alpha          n_x          n_y          n_z        tau_x        tau_y        tau_z
    1     1.000000     0.000000     1.000000     0.000000     0.000000     0.000000     0.000000     0.000000
    2     1.000000   120.000000    -0.577350    -0.577350    -0.577350     0.000000     0.000000     0.000000
    3     1.000000   120.000000     0.577350     0.577350     0.577350     0.000000     0.000000     0.000000
    4    -1.000000    90.000000     0.000000     0.000000    -1.000000     0.000000     0.000000     0.000000
    5    -1.000000   180.000000     0.000000     0.707107     0.707107     0.000000     0.000000     0.000000
    6    -1.000000    90.000000     0.000000     1.000000     0.000000     0.000000     0.000000     0.000000
    7     1.000000   180.000000     0.000000     0.000000     1.000000     0.000000     0.000000     0.000000
    8     1.000000   120.000000    -0.577350     0.577350     0.577350     0.000000     0.000000     0.000000
    9     1.000000   120.000000    -0.577350     0.577350    -0.577350     0.000000     0.000000     0.000000
   10    -1.000000    90.000000     0.000000     0.000000     1.000000     0.000000     0.000000     0.000000
   11    -1.000000    90.000000    -1.000000     0.000000     0.000000     0.000000     0.000000     0.000000
   12    -1.000000   180.000000     0.707107     0.000000     0.707107     0.000000     0.000000     0.000000
   13     1.000000   120.000000     0.577350    -0.577350     0.577350     0.000000     0.000000     0.000000
   14     1.000000   120.000000    -0.577350    -0.577350     0.577350     0.000000     0.000000     0.000000
   15     1.000000   180.000000     1.000000     0.000000     0.000000     0.000000     0.000000     0.000000
   16    -1.000000    90.000000     0.000000    -1.000000     0.000000     0.000000     0.000000     0.000000
   17    -1.000000   180.000000     0.707107     0.707107     0.000000     0.000000     0.000000     0.000000
   18    -1.000000    90.000000     1.000000     0.000000     0.000000     0.000000     0.000000     0.000000
   19     1.000000   120.000000     0.577350    -0.577350    -0.577350     0.000000     0.000000     0.000000
   20     1.000000   180.000000     0.000000     1.000000     0.000000     0.000000     0.000000     0.000000
   21     1.000000   120.000000     0.577350     0.577350    -0.577350     0.000000     0.000000     0.000000
   22    -1.000000   180.000000     0.000000    -0.707107     0.707107     0.000000     0.000000     0.000000
   23    -1.000000   180.000000     0.707107    -0.707107     0.000000     0.000000     0.000000     0.000000
   24    -1.000000   180.000000     0.707107     0.000000    -0.707107     0.000000     0.000000     0.000000

 Subroutine IBZKPT returns following result:

 Found   2480 irreducible k-points:

 Following reciprocal coordinates:
            Coordinates               Weight
  0.016667  0.016667  0.016667     96.000000
  0.050000  0.016667  0.016667    288.000000
  0.083333  0.016667  0.016667    288.000000
  0.116667  0.016667  0.016667    288.000000
  0.150000  0.016667  0.016667    288.000000
  0.183333  0.016667  0.016667    288.000000
  0.216667  0.016667  0.016667    288.000000
  0.250000  0.016667  0.016667    288.000000
  0.283333  0.016667  0.016667    288.000000
  0.316667  0.016667  0.016667    288.000000
  0.350000  0.016667  0.016667    288.000000
  0.383333  0.016667  0.016667    288.000000
  0.416667  0.016667  0.016667    288.000000
  0.450000  0.016667  0.016667    288.000000
  0.483333  0.016667  0.016667    288.000000
 -0.483333  0.016667  0.016667    288.000000
 -0.450000  0.016667  0.016667    288.000000
 -0.416667  0.016667  0.016667    288.000000
 -0.383333  0.016667  0.016667    288.000000
 -0.350000  0.016667  0.016667    288.000000
 -0.316667  0.016667  0.016667    288.000000
 -0.283333  0.016667  0.016667    288.000000
 -0.250000  0.016667  0.016667    288.000000
 -0.216667  0.016667  0.016667    288.000000
 -0.183333  0.016667  0.016667    288.000000
 -0.150000  0.016667  0.016667    288.000000
 -0.116667  0.016667  0.016667    288.000000
 -0.083333  0.016667  0.016667    288.000000
 -0.050000  0.016667  0.016667    288.000000
 -0.016667  0.016667  0.016667    288.000000
  0.050000  0.050000  0.016667    288.000000
  0.083333  0.050000  0.016667    576.000000
  0.116667  0.050000  0.016667    576.000000
  0.150000  0.050000  0.016667    576.000000
  0.183333  0.050000  0.016667    576.000000
  0.216667  0.050000  0.016667    576.000000
  0.250000  0.050000  0.016667    576.000000
  0.283333  0.050000  0.016667    576.000000
  0.316667  0.050000  0.016667    576.000000
  0.350000  0.050000  0.016667    576.000000
  0.383333  0.050000  0.016667    576.000000
  0.416667  0.050000  0.016667    576.000000
  0.450000  0.050000  0.016667    576.000000
  0.483333  0.050000  0.016667    576.000000
 -0.483333  0.050000  0.016667    576.000000
 -0.450000  0.050000  0.016667    576.000000
 -0.416667  0.050000  0.016667    576.000000
 -0.383333  0.050000  0.016667    576.000000
 -0.350000  0.050000  0.016667    576.000000
 -0.316667  0.050000  0.016667    576.000000
 -0.283333  0.050000  0.016667    576.000000
 -0.250000  0.050000  0.016667    576.000000
 -0.216667  0.050000  0.016667    576.000000
 -0.183333  0.050000  0.016667    576.000000
 -0.150000  0.050000  0.016667    576.000000
 -0.116667  0.050000  0.016667    576.000000
 -0.083333  0.050000  0.016667    576.000000
 -0.050000  0.050000  0.016667    576.000000
 -0.016667  0.050000  0.016667    576.000000
  0.083333  0.083333  0.016667    288.000000
[...]
 -0.450000  0.483333  0.416667    576.000000
 -0.416667  0.483333  0.416667    576.000000
 -0.483333 -0.483333  0.416667    288.000000
 -0.450000 -0.483333  0.416667    576.000000
 -0.450000 -0.450000  0.416667    288.000000
  0.450000  0.450000  0.450000     96.000000
  0.483333  0.450000  0.450000    288.000000
 -0.483333  0.450000  0.450000    288.000000
 -0.450000  0.450000  0.450000    288.000000
  0.483333  0.483333  0.450000    288.000000
 -0.483333  0.483333  0.450000    576.000000
 -0.450000  0.483333  0.450000    576.000000
 -0.483333 -0.483333  0.450000    288.000000
  0.483333  0.483333  0.483333     96.000000
 -0.483333  0.483333  0.483333    288.000000

 Following cartesian coordinates:
            Coordinates               Weight
  0.016667  0.016667  0.016667     96.000000
 -0.016667  0.050000  0.050000    288.000000
 -0.050000  0.083333  0.083333    288.000000
 -0.083333  0.116667  0.116667    288.000000
 -0.116667  0.150000  0.150000    288.000000
 -0.150000  0.183333  0.183333    288.000000
 -0.183333  0.216667  0.216667    288.000000
 -0.216667  0.250000  0.250000    288.000000
 -0.250000  0.283333  0.283333    288.000000
 -0.283333  0.316667  0.316667    288.000000
 -0.316667  0.350000  0.350000    288.000000
 -0.350000  0.383333  0.383333    288.000000
 -0.383333  0.416667  0.416667    288.000000
 -0.416667  0.450000  0.450000    288.000000
 -0.450000  0.483333  0.483333    288.000000
  0.516667 -0.483333 -0.483333    288.000000
  0.483333 -0.450000 -0.450000    288.000000
  0.450000 -0.416667 -0.416667    288.000000
  0.416667 -0.383333 -0.383333    288.000000
  0.383333 -0.350000 -0.350000    288.000000
  0.350000 -0.316667 -0.316667    288.000000
  0.316667 -0.283333 -0.283333    288.000000
  0.283333 -0.250000 -0.250000    288.000000
  0.250000 -0.216667 -0.216667    288.000000
  0.216667 -0.183333 -0.183333    288.000000
  0.183333 -0.150000 -0.150000    288.000000
  0.150000 -0.116667 -0.116667    288.000000
  0.116667 -0.083333 -0.083333    288.000000
  0.083333 -0.050000 -0.050000    288.000000
  0.050000 -0.016667 -0.016667    288.000000
  0.016667  0.016667  0.083333    288.000000
 -0.016667  0.050000  0.116667    576.000000
 -0.050000  0.083333  0.150000    576.000000
 -0.083333  0.116667  0.183333    576.000000
 -0.116667  0.150000  0.216667    576.000000
 -0.150000  0.183333  0.250000    576.000000
 -0.183333  0.216667  0.283333    576.000000
 -0.216667  0.250000  0.316667    576.000000
 -0.250000  0.283333  0.350000    576.000000
 -0.283333  0.316667  0.383333    576.000000
 -0.316667  0.350000  0.416667    576.000000
 -0.350000  0.383333  0.450000    576.000000
[...]
[...]
 k-point 85 :  -0.0833 0.0833 0.0167  plane waves:     328
 k-point 86 :  -0.0500 0.0833 0.0167  plane waves:     328
 k-point 87 :  -0.0167 0.0833 0.0167  plane waves:     330
 k-point 88 :   0.1167 0.1167 0.0167  plane waves:     327
 k-point 89 :   0.1500 0.1167 0.0167  plane waves:     328
 k-point 90 :   0.1833 0.1167 0.0167  plane waves:     323
 k-point 91 :   0.2167 0.1167 0.0167  plane waves:     321
 k-point 92 :   0.2500 0.1167 0.0167  plane waves:     321
 k-point 93 :   0.2833 0.1167 0.0167  plane waves:     324
 k-point 94 :   0.3167 0.1167 0.0167  plane waves:     325
 k-point 95 :   0.3500 0.1167 0.0167  plane waves:     326
 k-point 96 :   0.3833 0.1167 0.0167  plane waves:     328
 k-point 97 :   0.4167 0.1167 0.0167  plane waves:     328
 k-point 98 :   0.4500 0.1167 0.0167  plane waves:     329
 k-point 99 :   0.4833 0.1167 0.0167  plane waves:     327
 k-point ** :  -0.4833 0.1167 0.0167  plane waves:     327
 k-point ** :  -0.4500 0.1167 0.0167  plane waves:     328
 k-point ** :  -0.4167 0.1167 0.0167  plane waves:     329
 k-point ** :  -0.3833 0.1167 0.0167  plane waves:     328
 k-point ** :  -0.3500 0.1167 0.0167  plane waves:     326
 k-point ** :  -0.3167 0.1167 0.0167  plane waves:     324
 k-point ** :  -0.2833 0.1167 0.0167  plane waves:     322
 k-point ** :  -0.2500 0.1167 0.0167  plane waves:     322
 k-point ** :  -0.2167 0.1167 0.0167  plane waves:     324
 k-point ** :  -0.1833 0.1167 0.0167  plane waves:     320
 k-point ** :  -0.1500 0.1167 0.0167  plane waves:     321
 k-point ** :  -0.1167 0.1167 0.0167  plane waves:     321
 k-point ** :  -0.0833 0.1167 0.0167  plane waves:     324
 k-point ** :  -0.0500 0.1167 0.0167  plane waves:     326
 k-point ** :  -0.0167 0.1167 0.0167  plane waves:     328
 k-point ** :   0.1500 0.1500 0.0167  plane waves:     327
 k-point ** :   0.1833 0.1500 0.0167  plane waves:     325
 k-point ** :   0.2167 0.1500 0.0167  plane waves:     322
 k-point ** :   0.2500 0.1500 0.0167  plane waves:     323
 k-point ** :   0.2833 0.1500 0.0167  plane waves:     325
 k-point ** :   0.3167 0.1500 0.0167  plane waves:     327
 k-point ** :   0.3500 0.1500 0.0167  plane waves:     328
 k-point ** :   0.3833 0.1500 0.0167  plane waves:     328
 k-point ** :   0.4167 0.1500 0.0167  plane waves:     325
 k-point ** :   0.4500 0.1500 0.0167  plane waves:     326
 k-point ** :   0.4833 0.1500 0.0167  plane waves:     327
 k-point ** :  -0.4833 0.1500 0.0167  plane waves:     329
 k-point ** :  -0.4500 0.1500 0.0167  plane waves:     324
 k-point ** :  -0.4167 0.1500 0.0167  plane waves:     328
 k-point ** :  -0.3833 0.1500 0.0167  plane waves:     326
 k-point ** :  -0.3500 0.1500 0.0167  plane waves:     328
 k-point ** :  -0.3167 0.1500 0.0167  plane waves:     324
 k-point ** :  -0.2833 0.1500 0.0167  plane waves:     322
 k-point ** :  -0.2500 0.1500 0.0167  plane waves:     324
 k-point ** :  -0.2167 0.1500 0.0167  plane waves:     323
 k-point ** :  -0.1833 0.1500 0.0167  plane waves:     323
 k-point ** :  -0.1500 0.1500 0.0167  plane waves:     319
 k-point ** :  -0.1167 0.1500 0.0167  plane waves:     319
 k-point ** :  -0.0833 0.1500 0.0167  plane waves:     320
 k-point ** :  -0.0500 0.1500 0.0167  plane waves:     324
 k-point ** :  -0.0167 0.1500 0.0167  plane waves:     323
 k-point ** :   0.1833 0.1833 0.0167  plane waves:     327
 k-point ** :   0.2167 0.1833 0.0167  plane waves:     325
 k-point ** :   0.2500 0.1833 0.0167  plane waves:     323
 k-point ** :   0.2833 0.1833 0.0167  plane waves:     323
 k-point ** :   0.3167 0.1833 0.0167  plane waves:     325
 k-point ** :   0.3500 0.1833 0.0167  plane waves:     324
 k-point ** :   0.3833 0.1833 0.0167  plane waves:     325
 k-point ** :   0.4167 0.1833 0.0167  plane waves:     325
 k-point ** :   0.4500 0.1833 0.0167  plane waves:     323
 k-point ** :   0.4833 0.1833 0.0167  plane waves:     325
 k-point ** :  -0.4833 0.1833 0.0167  plane waves:     322
 k-point ** :  -0.4500 0.1833 0.0167  plane waves:     325
 k-point ** :  -0.4167 0.1833 0.0167  plane waves:     325
 k-point ** :  -0.3833 0.1833 0.0167  plane waves:     328
 k-point ** :  -0.3500 0.1833 0.0167  plane waves:     327
 k-point ** :  -0.3167 0.1833 0.0167  plane waves:     325
 k-point ** :  -0.2833 0.1833 0.0167  plane waves:     324
 k-point ** :  -0.2500 0.1833 0.0167  plane waves:     324
 k-point ** :  -0.2167 0.1833 0.0167  plane waves:     323
[...]
 k-point ** :  -0.4500 0.4833 0.4167  plane waves:     328
 k-point ** :  -0.4167 0.4833 0.4167  plane waves:     326
 k-point ** :  -0.4833-0.4833 0.4167  plane waves:     329
 k-point ** :  -0.4500-0.4833 0.4167  plane waves:     326
 k-point ** :  -0.4500-0.4500 0.4167  plane waves:     326
 k-point ** :   0.4500 0.4500 0.4500  plane waves:     335
 k-point ** :   0.4833 0.4500 0.4500  plane waves:     335
 k-point ** :  -0.4833 0.4500 0.4500  plane waves:     330
 k-point ** :  -0.4500 0.4500 0.4500  plane waves:     326
 k-point ** :   0.4833 0.4833 0.4500  plane waves:     332
 k-point ** :  -0.4833 0.4833 0.4500  plane waves:     332
 k-point ** :  -0.4500 0.4833 0.4500  plane waves:     329
 k-point ** :  -0.4833-0.4833 0.4500  plane waves:     330
 k-point ** :   0.4833 0.4833 0.4833  plane waves:     332
 k-point ** :  -0.4833 0.4833 0.4833  plane waves:     332

 maximum and minimum number of plane-waves per node :       335      311

 maximum number of plane-waves:       335
 maximum index in each direction:
   IXMAX=    5   IYMAX=    5   IZMAX=    4
   IXMIN=   -5   IYMIN=   -5   IZMIN=   -5

 serial   3D FFT for wavefunctions
 parallel 3D FFT for charge:
    minimum data exchange during FFTs selected (reduces bandwidth)

 Broyden mixing: mesh for mixing (old mesh)
   NGX =  9   NGY =  9   NGZ =  9
  (NGX  = 28   NGY  = 28   NGZ  = 28)
  gives a total of    729 points

 initial charge density was supplied:
 charge density of overlapping atoms calculated
 number of electron       8.0000000 magnetization
 keeping initial charge density in first step

 Maximum index for augmentation-charges         4093 (set IRDMAX)

 First call to EWALD:  gamma=   0.489
 Maximum number of real-space cells 3x 3x 3
 Maximum number of reciprocal cells 3x 3x 3

--------------------------------------- Iteration      1(   1)  ---------------------------------------

 eigenvalue-minimisations  : 40640
 total energy-change (2. order) : 0.5662621E+01  (-0.2137047E+03)
 number of electron       8.0000000 magnetization
 augmentation part        8.0000000 magnetization

 Free energy of the ion-electron system (eV)
  alpha Z        PSCENC =        17.39257848
  Ewald energy   TEWEN  =      -225.31709047
  -Hartree energ DENC   =       -18.74831461
  -exchange      EXHF   =         0.00000000
  -V(xc)+E(xc)   XCENC  =       -31.62727058
  PAW double counting   =       108.26776145      -62.69322138
  entropy T*S    EENTRO =        -0.00028065
  eigenvalues    EBANDS =       -11.21659305
  atomic energy  EATOM  =       229.60505158
  Solvation  Ediel_sol  =         0.00000000
  free energy    TOTEN  =         5.66262077 eV

  energy without entropy =        5.66290141  energy(sigma->0) =        5.66271432

[...]

 eigenvalue-minimisations  : 59304
 total energy-change (2. order) :-0.1395247E+02  (-0.1348357E+02)
 number of electron       8.0000000 magnetization
 augmentation part        8.0000000 magnetization

[...]

 Broyden mixing:
  rms(total) = 0.23040E+00    rms(broyden)= 0.23022E+00
  rms(prec ) = 0.71788E+00
  weight for this iteration     100.00

[...]

 eigenvalues of (default mixing * dielectric matrix)
  average eigenvalue GAMMA=   1.9845
  1.9845

[...]

 average (electrostatic) potential at core
  the test charge radii are     1.2767  1.0621
  (the norm of the test charge is              1.0000)
       1 -16.0512       2 -52.6925

 E-fermi :   2.3949     XC(G=0):  -9.0174     alpha+bet : -8.1997

 k-point     1 :       0.0167    0.0167    0.0167
  band No.  band energies     occupation
      1      -9.9885      2.00000
      2       2.1725      2.06637
      3       2.3519      1.35491
      4       2.3519      1.35491
      5       2.7071     -0.04974
      6       6.1051     -0.00000
      7       6.1090     -0.00000
      8       6.1090     -0.00000

[...]

 soft charge-density along one line, spin component           1
         0         1         2         3         4         5         6         7         8         9
 total charge-density along one line

------------------------ aborting loop because EDIFF is reached ----------------------------------------

  FORCE on cell =-STRESS in cart. coord.  units (eV):
  Direction    XX          YY          ZZ          XY          YZ          ZX
  Alpha Z    17.39258    17.39258    17.39258
  Ewald     -75.10573   -75.10573   -75.10573    -0.00000     0.00000    -0.00000
  Hartree     7.37345     7.37345     7.37345    -0.00000    -0.00000    -0.00000
  E(xc)     -29.85826   -29.85826   -29.85826     0.00001     0.00001     0.00001
  Local     -30.76664   -30.76664   -30.76664     0.00035     0.00035     0.00035
  n-local    45.42479    46.88265    43.77293     0.71536    -0.71924     0.00065
  augment     1.18630     1.18630     1.18630    -0.00019    -0.00019    -0.00019
  Kinetic    65.75037    66.00910    61.58077     1.39630    -1.39720     0.00444
  Fock        0.00000     0.00000     0.00000     0.00000     0.00000     0.00000
  Total       0.02858     0.02858     0.02858     0.00000     0.00000     0.00000
  in kB       0.96330     0.96330     0.96330     0.00000     0.00000     0.00000

 VOLUME and BASIS-vectors are now :
  energy-cutoff  :      208.73
  volume of cell :       47.53
      direct lattice vectors                 reciprocal lattice vectors
     0.000000000  2.875000000  2.875000000    -0.173913043  0.173913043  0.173913043
     2.875000000  0.000000000  2.875000000     0.173913043 -0.173913043  0.173913043
     2.875000000  2.875000000  0.000000000     0.173913043  0.173913043 -0.173913043

[...]

 FORCES acting on ions
    electron-ion (+dipol)            ewald-force                    non-local-force                 convergence-correction
   -.979E-05 -.979E-05 -.979E-05   -.102E-14 0.511E-15 0.171E-15   0.390E-17 0.434E-17 0.470E-17   -.279E-07 -.279E-07 -.279E-07
   -.634E-06 -.634E-06 -.634E-06   0.105E-14 -.655E-15 -.232E-15   -.347E-16 -.347E-16 -.341E-16   -.929E-09 -.929E-09 -.929E-09
   -.104E-04 -.104E-04 -.104E-04   0.223E-16 -.144E-15 -.611E-16   -.308E-16 -.304E-16 -.294E-16   -.288E-07 -.288E-07 -.288E-07

 POSITION                                       TOTAL-FORCE (eV/Angst)
      0.00000      0.00000      0.00000         0.000000      0.000000      0.000000
      1.43750      1.43750      1.43750        -0.000000     -0.000000     -0.000000
    total drift:                               -0.000010     -0.000010     -0.000010

  FREE ENERGIE OF THE ION-ELECTRON SYSTEM (eV)
  free  energy   TOTEN  =        -8.33723557 eV

  energy  without entropy=       -8.33776340  energy(sigma->0) =       -8.33741151

[...]

 d Force = 0.0000000E+00[ 0.000E+00, 0.000E+00]  d Energy = 0.1419803E-04-0.142E-04
 d Force = 0.0000000E+00[ 0.000E+00, 0.000E+00]  d Ewald  =-0.1552000E+00 0.155E+00

 Steepest descent step on ions:
 trial-energy change:   -0.000014  1 .order   -0.000018   -0.000059    0.000023
  (g-gl).g = 0.591E-04      g.g   = 0.591E-04  gl.gl    = 0.000E+00
 g(Force)  = 0.129E-43   g(Stress)= 0.591E-04 ortho     = 0.000E+00
 gamma     =   0.00000
 trial     =   1.00000
 opt step  =   0.71627  (harmonic =   0.71627) maximal distance =0.00000000
 next E    =    -8.337257   (d E  =  -0.00002)

[...]

 eigenvalue-minimisations  : 44024
 total energy-change (2. order) :-0.7895833E-05  (-0.1155847E-04)
 number of electron       8.0000012 magnetization
 augmentation part       -1.2982939 magnetization

[...]

 Broyden mixing:
  rms(total) = 0.39076E-03    rms(broyden)= 0.39066E-03
  rms(prec ) = 0.13258E-02
  weight for this iteration     100.00

 eigenvalues of (default mixing * dielectric matrix)
  average eigenvalue GAMMA=   1.7239
  1.7239

[...]

--------------------------------------- Iteration      3(   3)  ---------------------------------------

 eigenvalue-minimisations  : 29464
 total energy-change (2. order) : 0.5014153E-06  (-0.2656016E-06)
 number of electron       8.0000012 magnetization
 augmentation part       -1.2983522 magnetization

 Free energy of the ion-electron system (eV)
  alpha Z        PSCENC =        17.36684317
  Ewald energy   TEWEN  =      -225.20590383
  -Hartree energ DENC   =       -22.14784304
  -exchange      EXHF   =         0.00000000
  -V(xc)+E(xc)   XCENC  =       -30.94275775
  PAW double counting   =       130.54584018      -85.37346520
  entropy T*S    EENTRO =         0.00052974
  eigenvalues    EBANDS =       -22.18554888
  atomic energy  EATOM  =       229.60505158
  Solvation  Ediel_sol  =         0.00000000
  free energy    TOTEN  =        -8.33725403 eV

  energy without entropy =       -8.33778377  energy(sigma->0) =       -8.33743061

 average (electrostatic) potential at core
  the test charge radii are     1.2767  1.0621
  (the norm of the test charge is              1.0000)
       1 -16.0615       2 -52.7028

 E-fermi :   2.3834     XC(G=0):  -9.0113     alpha+bet : -8.1875

[...]

 k-point  2480 :      -0.4833    0.4833    0.4833
  band No.  band energies     occupation
      1      -8.4821      2.00000
      2      -3.9809      2.00000
      3       1.1620      2.00000
      4       1.2739      2.00000
      5       3.3558     -0.00000
      6       6.9532     -0.00000
      7       7.0228     -0.00000
      8      10.0807      0.00000

 soft charge-density along one line, spin component           1
         0         1         2         3         4         5         6         7         8         9
 total charge-density along one line

------------------------ aborting loop because EDIFF is reached ----------------------------------------

  FORCE on cell =-STRESS in cart. coord.  units (eV):
  Direction    XX          YY          ZZ          XY          YZ          ZX
  Alpha Z    17.36684    17.36684    17.36684
  Ewald     -75.06867   -75.06867   -75.06867    -0.00000     0.00000     0.00000
  Hartree     7.38225     7.38225     7.38225    -0.00000    -0.00000    -0.00000
  E(xc)     -29.84947   -29.84947   -29.84947     0.00001     0.00001     0.00001
  Local     -30.77550   -30.77550   -30.77550     0.00034     0.00034     0.00034
  n-local    45.40148    46.86002    43.74886     0.71500    -0.71889     0.00065
  augment     1.18528     1.18528     1.18528    -0.00019    -0.00019    -0.00019
  Kinetic    65.72226    65.99300    61.54703     1.39723    -1.39813     0.00445
  Fock        0.00000     0.00000     0.00000     0.00000     0.00000     0.00000
  Total      -0.00171    -0.00171    -0.00171     0.00000     0.00000     0.00000
  in kB      -0.05764    -0.05764    -0.05764     0.00000     0.00000     0.00000

 VOLUME and BASIS-vectors are now :
  energy-cutoff  :      208.73
  volume of cell :       47.60
      direct lattice vectors                 reciprocal lattice vectors
    -0.000000000  2.876419419  2.876419419    -0.173827223  0.173827223  0.173827223
     2.876419419  0.000000000  2.876419419     0.173827223 -0.173827223  0.173827223
     2.876419419  2.876419419  0.000000000     0.173827223  0.173827223 -0.173827223

  length of vectors
     4.067871354  4.067871354  4.067871354     0.301077582  0.301077582  0.301077582

 FORCES acting on ions
    electron-ion (+dipol)            ewald-force                    non-local-force                 convergence-correction
   -.977E-05 -.977E-05 -.977E-05   -.172E-14 0.281E-14 -.450E-14   0.434E-17 0.477E-17 0.450E-17   0.805E-07 0.805E-07 0.805E-07
   -.623E-06 -.623E-06 -.623E-06   0.173E-14 -.297E-14 0.437E-14   -.347E-16 -.347E-16 -.344E-16   -.725E-07 -.725E-07 -.725E-07
   -.104E-04 -.104E-04 -.104E-04   0.994E-17 -.152E-15 -.130E-15   -.304E-16 -.299E-16 -.299E-16   0.803E-08 0.803E-08 0.803E-08

 POSITION                                       TOTAL-FORCE (eV/Angst)
      0.00000      0.00000      0.00000        -0.000000     -0.000000     -0.000000
      1.43821      1.43821      1.43821         0.000000      0.000000      0.000000
    total drift:                               -0.000010     -0.000010     -0.000010

  FREE ENERGIE OF THE ION-ELECTRON SYSTEM (eV)
  free  energy   TOTEN  =        -8.33725403 eV

  energy  without entropy=       -8.33778377  energy(sigma->0) =       -8.33743061

 d Force = 0.0000000E+00[ 0.000E+00, 0.000E+00]  d Energy = 0.4263087E-05-0.426E-05
 d Force = 0.0000000E+00[ 0.000E+00, 0.000E+00]  d Ewald  = 0.4401333E-01-0.440E-01

 reached required accuracy - stopping structural energy minimisation