 vasp.5.4.4.18Apr17-6-g9f103f2a35 (build May 20 2018 16:52:39) complex

 executed on             LinuxIFC date 2022.10.31  01:19:53

 INCAR:
 POTCAR:    PAW Si
 POTCAR:    PAW Si
   VRHFIN =Si: s2p2

   TITEL  = PAW Si
   POMASS =   28.085; ZVAL   =    4.000    mass and valenz
   ENMAX  =  245.435; ENMIN  =  184.076 eV
   QCUT   =   -4.247; QGAM   =    8.494    optimization parameters

   Description
     l     E      TYP  RCUT    TYP  RCUT
     0   .000     23  1.900
     0   .000     23  1.900
     1   .000     23  1.900
     1   .000     23  1.900
     2   .000      7  1.900

  PAW Si                                :

 POSCAR: Si
  positions in direct lattice
 exchange correlation table for  LEXCH =        7
   RHO(1)=    0.500       N(1)  =     2000
   RHO(2)=  100.500       N(2)  =     4000

 ion  position               nearest neighbor table
   1  0.000  0.000  0.000-   2 2.37   2 2.37   2 2.37   2 2.37
   2  0.250  0.250  0.250-   1 2.37   1 2.37   1 2.37   1 2.37

  LATTYP: Found a face centered cubic cell.
 ALAT       =     5.4640000000

  Lattice vectors:

 A1 = (   0.0000000000,   2.7320000000,   2.7320000000)
 A2 = (   2.7320000000,   0.0000000000,   2.7320000000)
 A3 = (   2.7320000000,   2.7320000000,   0.0000000000)

Analysis of symmetry for initial positions (statically):
 Subroutine PRICEL returns:
 Original cell was already a primitive cell.

 Routine SETGRP: Setting up the symmetry group for a
 face centered cubic supercell.

 Subroutine GETGRP returns: Found 48 space group operations
 (whereof 24 operations were pure point group operations)
 out of a pool of 48 trial point group operations.

The static configuration has the point symmetry T_d .
 The point group associated with its full space group is O_h .

Analysis of symmetry for dynamics (positions and initial velocities):
 Subroutine PRICEL returns:
 Original cell was already a primitive cell.

 Routine SETGRP: Setting up the symmetry group for a
 face centered cubic supercell.

 Subroutine GETGRP returns: Found 48 space group operations
 (whereof 24 operations were pure point group operations)
 out of a pool of 48 trial point group operations.

The dynamic configuration has the point symmetry T_d .
 The point group associated with its full space group is O_h .

 Subroutine INISYM returns: Found 48 space group operations
 (whereof 24 operations are pure point group operations),
 and found     1 'primitive' translations

 KPOINTS: K-points along high symmetry lines for F
  interpolating k-points between supplied coordinates
  k-points in reciprocal lattice
Space group operators:
 irot       det(A)        alpha          n_x          n_y          n_z        tau_x        tau_y        tau_z
    1     1.000000     0.000000     1.000000     0.000000     0.000000     0.000000     0.000000     0.000000
    2     1.000000   120.000000    -0.577350    -0.577350    -0.577350     0.000000     0.000000     0.000000
    3     1.000000   120.000000     0.577350     0.577350     0.577350     0.000000     0.000000     0.000000
    4    -1.000000    90.000000     0.000000     0.000000    -1.000000     0.000000     0.000000     0.000000
    5    -1.000000   180.000000     0.000000     0.707107     0.707107     0.000000     0.000000     0.000000
    6    -1.000000    90.000000     0.000000     1.000000     0.000000     0.000000     0.000000     0.000000
    7     1.000000   180.000000     0.000000     0.000000     1.000000     0.000000     0.000000     0.000000
    8     1.000000   120.000000    -0.577350     0.577350     0.577350     0.000000     0.000000     0.000000
    9     1.000000   120.000000    -0.577350     0.577350    -0.577350     0.000000     0.000000     0.000000
   10    -1.000000    90.000000     0.000000     0.000000     1.000000     0.000000     0.000000     0.000000
   11    -1.000000    90.000000    -1.000000     0.000000     0.000000     0.000000     0.000000     0.000000
   12    -1.000000   180.000000     0.707107     0.000000     0.707107     0.000000     0.000000     0.000000
   13     1.000000   120.000000     0.577350    -0.577350     0.577350     0.000000     0.000000     0.000000
   14     1.000000   120.000000    -0.577350    -0.577350     0.577350     0.000000     0.000000     0.000000
   15     1.000000   180.000000     1.000000     0.000000     0.000000     0.000000     0.000000     0.000000
   16    -1.000000    90.000000     0.000000    -1.000000     0.000000     0.000000     0.000000     0.000000
   17    -1.000000   180.000000     0.707107     0.707107     0.000000     0.000000     0.000000     0.000000
   18    -1.000000    90.000000     1.000000     0.000000     0.000000     0.000000     0.000000     0.000000
   19     1.000000   120.000000     0.577350    -0.577350    -0.577350     0.000000     0.000000     0.000000
   20     1.000000   180.000000     0.000000     1.000000     0.000000     0.000000     0.000000     0.000000
   21     1.000000   120.000000     0.577350     0.577350    -0.577350     0.000000     0.000000     0.000000
   22    -1.000000   180.000000     0.000000    -0.707107     0.707107     0.000000     0.000000     0.000000
   23    -1.000000   180.000000     0.707107    -0.707107     0.000000     0.000000     0.000000     0.000000
   24    -1.000000   180.000000     0.707107     0.000000    -0.707107     0.000000     0.000000     0.000000
   25    -1.000000     0.000000     1.000000     0.000000     0.000000     0.250000     0.250000     0.250000
   26    -1.000000   120.000000    -0.577350    -0.577350    -0.577350     0.250000     0.250000     0.250000
   27    -1.000000   120.000000     0.577350     0.577350     0.577350     0.250000     0.250000     0.250000
   28     1.000000    90.000000     0.000000     0.000000    -1.000000     0.250000     0.250000     0.250000
   29     1.000000   180.000000     0.000000     0.707107     0.707107     0.250000     0.250000     0.250000
   30     1.000000    90.000000     0.000000     1.000000     0.000000     0.250000     0.250000     0.250000
   31    -1.000000   180.000000     0.000000     0.000000     1.000000     0.250000     0.250000     0.250000
   32    -1.000000   120.000000    -0.577350     0.577350     0.577350     0.250000     0.250000     0.250000
   33    -1.000000   120.000000    -0.577350     0.577350    -0.577350     0.250000     0.250000     0.250000
   34     1.000000    90.000000     0.000000     0.000000     1.000000     0.250000     0.250000     0.250000
   35     1.000000    90.000000    -1.000000     0.000000     0.000000     0.250000     0.250000     0.250000
   36     1.000000   180.000000     0.707107     0.000000     0.707107     0.250000     0.250000     0.250000
   37    -1.000000   120.000000     0.577350    -0.577350     0.577350     0.250000     0.250000     0.250000
   38    -1.000000   120.000000    -0.577350    -0.577350     0.577350     0.250000     0.250000     0.250000
   39    -1.000000   180.000000     1.000000     0.000000     0.000000     0.250000     0.250000     0.250000
   40     1.000000    90.000000     0.000000    -1.000000     0.000000     0.250000     0.250000     0.250000
   41     1.000000   180.000000     0.707107     0.707107     0.000000     0.250000     0.250000     0.250000
   42     1.000000    90.000000     1.000000     0.000000     0.000000     0.250000     0.250000     0.250000
   43    -1.000000   120.000000     0.577350    -0.577350    -0.577350     0.250000     0.250000     0.250000
   44    -1.000000   180.000000     0.000000     1.000000     0.000000     0.250000     0.250000     0.250000
   45    -1.000000   120.000000     0.577350     0.577350    -0.577350     0.250000     0.250000     0.250000
   46     1.000000   180.000000     0.000000    -0.707107     0.707107     0.250000     0.250000     0.250000
   47     1.000000   180.000000     0.707107    -0.707107     0.000000     0.250000     0.250000     0.250000
   48     1.000000   180.000000     0.707107     0.000000    -0.707107     0.250000     0.250000     0.250000

 SYSTEM =  Si
 POSCAR =  Si

 Startparameter for this run:
   NWRITE =      2    write-flag & timer
   PREC   = normal    normal or accurate (medium, high low for compatibility)
   ISTART =      0    job   : 0-new  1-cont  2-samecut
   ICHARG =     11    charge: 1-file 2-atom 10-const
   ISPIN  =      1    spin polarized calculation?
   LNONCOLLINEAR =      F non collinear calculations
   LSORBIT =      F    spin-orbit coupling
   INIWAV =      1    electr: 0-lowe 1-rand  2-diag
   LASPH  =      F    aspherical Exc in radial PAW
   METAGGA=      F    non-selfconsistent MetaGGA calc.

 Electronic Relaxation 1
   ENCUT  =  245.4 eV  18.04 Ry    4.25 a.u.   4.94  4.94  4.94*2*pi/ulx,y,z
   ENINI  =  245.4     initial cutoff
   ENAUG  =  322.1 eV  augmentation charge cutoff
   NELM   =     60;   NELMIN=  2; NELMDL=  0     # of ELM steps
   EDIFF  = 0.1E-05   stopping-criterion for ELM
   LREAL  =      F    real-space projection
   NLSPLINE    = F    spline interpolate recip. space projectors
   LCOMPAT=      F    compatible to vasp.4.4
   GGA_COMPAT  = T    GGA compatible to vasp.4.4-vasp.4.6
   LMAXPAW     = -100 max onsite density
   LMAXMIX     =    2 max onsite mixed and CHGCAR
   VOSKOWN=      0    Vosko Wilk Nusair interpolation
   ROPT   =    0.00000
 Ionic relaxation
   EDIFFG = 0.1E-04   stopping-criterion for IOM
   NSW    =      0    number of steps for IOM
   NBLOCK =      1;   KBLOCK =      1    inner block; outer block
   IBRION =     -1    ionic relax: 0-MD 1-quasi-New 2-CG
   NFREE  =      0    steps in history (QN), initial steepest desc. (CG)
   ISIF   =      2    stress and relaxation
   IWAVPR =     10    prediction:  0-non 1-charg 2-wave 3-comb
   ISYM   =      2    0-nonsym 1-usesym 2-fastsym
   LCORR  =      T    Harris-Foulkes like correction to forces

   POTIM  = 0.5000    time-step for ionic-motion
   TEIN   =    0.0    initial temperature
   TEBEG  =    0.0;   TEEND  =   0.0 temperature during run
   SMASS  =  -3.00    Nose mass-parameter (am)
   estimated Nose-frequenzy (Omega)   =  0.10E-29 period in steps =****** mass=  -0.341E-27a.u.
   SCALEE = 1.0000    scale energy and forces
   NPACO  =    256;   APACO  = 16.0  distance and # of slots for P.C.
   PSTRESS=    0.0 pullay stress

  Mass of Ions in am
   POMASS =  28.09
  Ionic Valenz
   ZVAL   =   4.00
  Atomic Wigner-Seitz radii
  virtual crystal weights
   VCA    =   1.00
   NELECT =       8.0000    total number of electrons
   NUPDOWN=      -1.0000    fix difference up-down

 DOS related values:
   EMIN   =  10.00;   EMAX   =-10.00  energy-range for DOS
   EFERMI =   0.00
   ISMEAR =     1;   SIGMA  =   0.20  broadening in eV -4-tet -1-fermi 0-gaus

 Electronic relaxation 2 (details)
   IALGO  =     38    algorithm
   LDIAG  =      T    sub-space diagonalisation (order eigenvalues)
   LSUBROT=      F    optimize rotation matrix (better conditioning)
   TURBO    =      0    0=normal 1=particle mesh
   IRESTART =      0    0=no restart 2=restart with 2 vectors
   NREBOOT  =      0    no. of reboots
   NMIN     =      0    reboot dimension
   EREF     =   0.00    reference energy to select bands
   IMIX   =      4    mixing-type and parameters
[...]
   0.50000000  0.48275862  0.51724138       0.007
   0.50000000  0.49137931  0.50862069       0.007
   0.50000000  0.50000000  0.50000000       0.007
   0.50000000  0.50000000  0.50000000       0.007
   0.48275862  0.48275862  0.48275862       0.007
   0.46551724  0.46551724  0.46551724       0.007
   0.44827586  0.44827586  0.44827586       0.007
   0.43103448  0.43103448  0.43103448       0.007
   0.41379310  0.41379310  0.41379310       0.007
   0.39655172  0.39655172  0.39655172       0.007
   0.37931034  0.37931034  0.37931034       0.007
   0.36206897  0.36206897  0.36206897       0.007
   0.34482759  0.34482759  0.34482759       0.007
   0.32758621  0.32758621  0.32758621       0.007
   0.31034483  0.31034483  0.31034483       0.007
   0.29310345  0.29310345  0.29310345       0.007
   0.27586207  0.27586207  0.27586207       0.007
   0.25862069  0.25862069  0.25862069       0.007
   0.24137931  0.24137931  0.24137931       0.007
   0.22413793  0.22413793  0.22413793       0.007
   0.20689655  0.20689655  0.20689655       0.007
   0.18965517  0.18965517  0.18965517       0.007
   0.17241379  0.17241379  0.17241379       0.007
   0.15517241  0.15517241  0.15517241       0.007
   0.13793103  0.13793103  0.13793103       0.007
   0.12068966  0.12068966  0.12068966       0.007
   0.10344828  0.10344828  0.10344828       0.007
   0.08620690  0.08620690  0.08620690       0.007
   0.06896552  0.06896552  0.06896552       0.007
   0.05172414  0.05172414  0.05172414       0.007
   0.03448276  0.03448276  0.03448276       0.007
   0.01724138  0.01724138  0.01724138       0.007
   0.00000000  0.00000000  0.00000000       0.007
[...]
   0.50000000  0.12068966  0.62068966       0.007
   0.50000000  0.11206897  0.61206897       0.007
   0.50000000  0.10344828  0.60344828       0.007
   0.50000000  0.09482759  0.59482759       0.007
   0.50000000  0.08620690  0.58620690       0.007
   0.50000000  0.07758621  0.57758621       0.007
   0.50000000  0.06896552  0.56896552       0.007
   0.50000000  0.06034483  0.56034483       0.007
   0.50000000  0.05172414  0.55172414       0.007
   0.50000000  0.04310345  0.54310345       0.007
   0.50000000  0.03448276  0.53448276       0.007
   0.50000000  0.02586207  0.52586207       0.007
   0.50000000  0.01724138  0.51724138       0.007
   0.50000000  0.00862069  0.50862069       0.007
   0.50000000  0.00000000  0.50000000       0.007

 position of ions in fractional coordinates (direct lattice)
   0.00000000  0.00000000  0.00000000
   0.25000000  0.25000000  0.25000000

 position of ions in cartesian coordinates  (Angst):
   0.00000000  0.00000000  0.00000000
   1.36600000  1.36600000  1.36600000

 k-point  1 :   0.5000 0.2500 0.7500  plane waves:     360
 k-point  2 :   0.5000 0.2586 0.7414  plane waves:     360
 k-point  3 :   0.5000 0.2672 0.7328  plane waves:     360
 k-point  4 :   0.5000 0.2759 0.7241  plane waves:     366
 k-point  5 :   0.5000 0.2845 0.7155  plane waves:     368
 k-point  6 :   0.5000 0.2931 0.7069  plane waves:     364
 k-point  7 :   0.5000 0.3017 0.6983  plane waves:     366
 k-point  8 :   0.5000 0.3103 0.6897  plane waves:     366
 k-point  9 :   0.5000 0.3190 0.6810  plane waves:     366
 k-point 10 :   0.5000 0.3276 0.6724  plane waves:     366
 k-point 11 :   0.5000 0.3362 0.6638  plane waves:     366
 k-point 12 :   0.5000 0.3448 0.6552  plane waves:     366
 k-point 13 :   0.5000 0.3534 0.6466  plane waves:     366
 k-point 14 :   0.5000 0.3621 0.6379  plane waves:     366
 k-point 15 :   0.5000 0.3707 0.6293  plane waves:     358
 k-point 16 :   0.5000 0.3793 0.6207  plane waves:     358
 k-point 17 :   0.5000 0.3879 0.6121  plane waves:     362
 k-point 18 :   0.5000 0.3966 0.6034  plane waves:     362
 k-point 19 :   0.5000 0.4052 0.5948  plane waves:     360
 k-point 20 :   0.5000 0.4138 0.5862  plane waves:     358
 k-point 21 :   0.5000 0.4224 0.5776  plane waves:     358
 k-point 22 :   0.5000 0.4310 0.5690  plane waves:     358
 k-point 23 :   0.5000 0.4397 0.5603  plane waves:     358
 k-point 24 :   0.5000 0.4483 0.5517  plane waves:     358
 k-point 25 :   0.5000 0.4569 0.5431  plane waves:     356
 k-point 26 :   0.5000 0.4655 0.5345  plane waves:     356
 k-point 27 :   0.5000 0.4741 0.5259  plane waves:     356
 k-point 28 :   0.5000 0.4828 0.5172  plane waves:     356
 k-point 29 :   0.5000 0.4914 0.5086  plane waves:     356
 k-point 30 :   0.5000 0.5000 0.5000  plane waves:     344
 k-point 31 :   0.5000 0.5000 0.5000  plane waves:     344
 k-point 32 :   0.4828 0.4828 0.4828  plane waves:     356
 k-point 33 :   0.4655 0.4655 0.4655  plane waves:     356
 k-point 34 :   0.4483 0.4483 0.4483  plane waves:     356
 k-point 35 :   0.4310 0.4310 0.4310  plane waves:     356
 k-point 36 :   0.4138 0.4138 0.4138  plane waves:     353
 k-point 37 :   0.3966 0.3966 0.3966  plane waves:     353
 k-point 38 :   0.3793 0.3793 0.3793  plane waves:     353
 k-point 39 :   0.3621 0.3621 0.3621  plane waves:     353
 k-point 40 :   0.3448 0.3448 0.3448  plane waves:     359
 k-point 41 :   0.3276 0.3276 0.3276  plane waves:     359
 k-point 42 :   0.3103 0.3103 0.3103  plane waves:     353
 k-point 43 :   0.2931 0.2931 0.2931  plane waves:     353
 k-point 44 :   0.2759 0.2759 0.2759  plane waves:     353
 k-point 45 :   0.2586 0.2586 0.2586  plane waves:     353
 k-point 46 :   0.2414 0.2414 0.2414  plane waves:     353
 k-point 47 :   0.2241 0.2241 0.2241  plane waves:     356
 k-point 48 :   0.2069 0.2069 0.2069  plane waves:     356
 k-point 49 :   0.1897 0.1897 0.1897  plane waves:     356
 k-point 50 :   0.1724 0.1724 0.1724  plane waves:     356
 k-point 51 :   0.1552 0.1552 0.1552  plane waves:     344
 k-point 52 :   0.1379 0.1379 0.1379  plane waves:     344
 k-point 53 :   0.1207 0.1207 0.1207  plane waves:     338
 k-point 54 :   0.1034 0.1034 0.1034  plane waves:     335
 k-point 55 :   0.0862 0.0862 0.0862  plane waves:     338
 k-point 56 :   0.0690 0.0690 0.0690  plane waves:     338
 k-point 57 :   0.0517 0.0517 0.0517  plane waves:     338
 k-point 58 :   0.0345 0.0345 0.0345  plane waves:     338
 k-point 59 :   0.0172 0.0172 0.0172  plane waves:     339
 k-point 60 :   0.0000 0.0000 0.0000  plane waves:     339
[...]
 k-point 85 :   0.4138 0.0000 0.4138  plane waves:     359
 k-point 86 :   0.4310 0.0000 0.4310  plane waves:     351
 k-point 87 :   0.4483 0.0000 0.4483  plane waves:     351
 k-point 88 :   0.4655 0.0000 0.4655  plane waves:     351
 k-point 89 :   0.4828 0.0000 0.4828  plane waves:     343
 k-point 90 :   0.5000 0.0000 0.5000  plane waves:     342
 k-point 91 :   0.5000 0.0000 0.5000  plane waves:     342
 k-point 92 :   0.5000 0.0086 0.5086  plane waves:     342
 k-point 93 :   0.5000 0.0172 0.5172  plane waves:     346
 k-point 94 :   0.5000 0.0259 0.5259  plane waves:     346
 k-point 95 :   0.5000 0.0345 0.5345  plane waves:     346
 k-point 96 :   0.5000 0.0431 0.5431  plane waves:     350
 k-point 97 :   0.5000 0.0517 0.5517  plane waves:     352
 k-point 98 :   0.5000 0.0603 0.5603  plane waves:     352
 k-point 99 :   0.5000 0.0690 0.5690  plane waves:     358
 k-point ** :   0.5000 0.0776 0.5776  plane waves:     358
 k-point ** :   0.5000 0.0862 0.5862  plane waves:     358
 k-point ** :   0.5000 0.0948 0.5948  plane waves:     358
 k-point ** :   0.5000 0.1034 0.6034  plane waves:     358
 k-point ** :   0.5000 0.1121 0.6121  plane waves:     362
 k-point ** :   0.5000 0.1207 0.6207  plane waves:     362
 k-point ** :   0.5000 0.1293 0.6293  plane waves:     362
 k-point ** :   0.5000 0.1379 0.6379  plane waves:     362
 k-point ** :   0.5000 0.1466 0.6466  plane waves:     362
 k-point ** :   0.5000 0.1552 0.6552  plane waves:     360
 k-point ** :   0.5000 0.1638 0.6638  plane waves:     360
 k-point ** :   0.5000 0.1724 0.6724  plane waves:     360
 k-point ** :   0.5000 0.1810 0.6810  plane waves:     360
 k-point ** :   0.5000 0.1897 0.6897  plane waves:     364
 k-point ** :   0.5000 0.1983 0.6983  plane waves:     368
 k-point ** :   0.5000 0.2069 0.7069  plane waves:     368
 k-point ** :   0.5000 0.2155 0.7155  plane waves:     364
 k-point ** :   0.5000 0.2241 0.7241  plane waves:     360
 k-point ** :   0.5000 0.2328 0.7328  plane waves:     360
 k-point ** :   0.5000 0.2414 0.7414  plane waves:     360
 k-point ** :   0.5000 0.2500 0.7500  plane waves:     360
 k-point ** :   0.5000 0.2500 0.7500  plane waves:     360
 k-point ** :   0.5000 0.2414 0.7414  plane waves:     360
 k-point ** :   0.5000 0.2328 0.7328  plane waves:     360
 k-point ** :   0.5000 0.2241 0.7241  plane waves:     360
 k-point ** :   0.5000 0.2155 0.7155  plane waves:     364
 k-point ** :   0.5000 0.2069 0.7069  plane waves:     368
 k-point ** :   0.5000 0.1983 0.6983  plane waves:     368
 k-point ** :   0.5000 0.1897 0.6897  plane waves:     364
 k-point ** :   0.5000 0.1810 0.6810  plane waves:     360
 k-point ** :   0.5000 0.1724 0.6724  plane waves:     360
 k-point ** :   0.5000 0.1638 0.6638  plane waves:     360
 k-point ** :   0.5000 0.1552 0.6552  plane waves:     360
 k-point ** :   0.5000 0.1466 0.6466  plane waves:     362
 k-point ** :   0.5000 0.1379 0.6379  plane waves:     362
 k-point ** :   0.5000 0.1293 0.6293  plane waves:     362
 k-point ** :   0.5000 0.1207 0.6207  plane waves:     362
 k-point ** :   0.5000 0.1121 0.6121  plane waves:     362
 k-point ** :   0.5000 0.1034 0.6034  plane waves:     358
 k-point ** :   0.5000 0.0948 0.5948  plane waves:     358
 k-point ** :   0.5000 0.0862 0.5862  plane waves:     358
 k-point ** :   0.5000 0.0776 0.5776  plane waves:     358
 k-point ** :   0.5000 0.0690 0.5690  plane waves:     358
 k-point ** :   0.5000 0.0603 0.5603  plane waves:     352
 k-point ** :   0.5000 0.0517 0.5517  plane waves:     352
 k-point ** :   0.5000 0.0431 0.5431  plane waves:     350
 k-point ** :   0.5000 0.0345 0.5345  plane waves:     346
 k-point ** :   0.5000 0.0259 0.5259  plane waves:     346
 k-point ** :   0.5000 0.0172 0.5172  plane waves:     346
 k-point ** :   0.5000 0.0086 0.5086  plane waves:     342
 k-point ** :   0.5000 0.0000 0.5000  plane waves:     342

 maximum and minimum number of plane-waves per node :       368      335

 maximum number of plane-waves:       368
 maximum index in each direction:
   IXMAX=    4   IYMAX=    4   IZMAX=    4
   IXMIN=   -5   IYMIN=   -5   IZMIN=   -5

 serial   3D FFT for wavefunctions
 parallel 3D FFT for charge:
    minimum data exchange during FFTs selected (reduces bandwidth)

 initial charge density was supplied:
 number of electron       7.9999993 magnetization
 keeping initial charge density in first step

 Maximum index for augmentation-charges         3319 (set IRDMAX)

 First call to EWALD:  gamma=   0.515
 Maximum number of real-space cells 3x 3x 3
 Maximum number of reciprocal cells 3x 3x 3

--------------------------------------- Iteration      1(   1)  ---------------------------------------

 eigenvalue-minimisations  :  2416
 total energy-change (2. order) : 0.2234526E+00  (-0.2191373E+03)
 number of electron       7.9999993 magnetization
 augmentation part        7.9999993 magnetization

 Free energy of the ion-electron system (eV)
  alpha Z        PSCENC =         3.18282462
  Ewald energy   TEWEN  =      -227.14127752
  -Hartree energ DENC   =       -14.62996643
  -exchange      EXHF   =         0.00000000
  -V(xc)+E(xc)   XCENC  =       -18.53355719
  PAW double counting   =        76.07092295      -40.75419350
  entropy T*S    EENTRO =        -0.00207273
  eigenvalues    EBANDS =        15.42687336
  atomic energy  EATOM  =       206.60389906
  Solvation  Ediel_sol  =         0.00000000
  free energy    TOTEN  =         0.22345263 eV

  energy without entropy =        0.22552536  energy(sigma->0) =        0.22414354

[...]

 eigenvalue-minimisations  :  3736
 total energy-change (2. order) :-0.1015318E+02  (-0.9416453E+01)
 number of electron       7.9999993 magnetization
 augmentation part        7.9999993 magnetization

[...]

--------------------------------------- Iteration      1(   6)  ---------------------------------------

 eigenvalue-minimisations  :  3936
 total energy-change (2. order) :-0.3422173E-08  (-0.3874913E-08)
 number of electron       7.9999993 magnetization
 augmentation part        7.9999993 magnetization

 Free energy of the ion-electron system (eV)
  alpha Z        PSCENC =         3.18282462
  Ewald energy   TEWEN  =      -227.14127752
  -Hartree energ DENC   =       -14.62996643
  -exchange      EXHF   =         0.00000000
  -V(xc)+E(xc)   XCENC  =       -18.53355719
  PAW double counting   =        76.07092295      -40.75419350
  entropy T*S    EENTRO =         0.00244657
  eigenvalues    EBANDS =         5.12947870
  atomic energy  EATOM  =       206.60389906
  Solvation  Ediel_sol  =         0.00000000
  free energy    TOTEN  =       -10.06942273 eV

  energy without entropy =      -10.07186930  energy(sigma->0) =      -10.07023825

 average (electrostatic) potential at core
  the test charge radii are     0.9892
  (the norm of the test charge is              1.0000)
       1 -83.9563       2 -83.9563

 E-fermi :   5.6669     XC(G=0):  -9.3948     alpha+bet :-11.7766

 k-point     1 :       0.5000    0.2500    0.7500
  band No.  band energies     occupation
      1      -2.0580      2.00000
      2      -2.0580      2.00000
      3       1.8041      2.00000
      4       1.8041      2.00000
      5       9.8742     -0.00000
      6       9.8742     -0.00000
      7      10.5218     -0.00000
      8      10.5219     -0.00000

[...]

 k-point   150 :       0.5000    0.0000    0.5000
  band No.  band energies     occupation
      1      -2.2096      2.00000
      2      -2.2096      2.00000
      3       2.7566      2.00000
      4       2.7566      2.00000
      5       6.3647     -0.00001
      6       6.3647     -0.00001
      7      15.5093      0.00000
      8      15.5096      0.00000

 soft charge-density along one line, spin component           1
         0         1         2         3         4         5         6         7         8         9
 total charge-density along one line

------------------------ aborting loop because EDIFF is reached ----------------------------------------

  FORCE on cell =-STRESS in cart. coord.  units (eV):
  Direction    XX          YY          ZZ          XY          YZ          ZX
  Alpha Z     3.18282     3.18282     3.18282
  Ewald     -75.71379   -75.71379   -75.71379     0.00000     0.00000    -0.00000
  Hartree     5.39798     5.39798     5.39798    -0.00000    -0.00000    -0.00000
  E(xc)     -25.29689   -25.29689   -25.29689     0.00001     0.00001     0.00001
  Local     -30.63237   -30.63237   -30.63237     0.00005     0.00005     0.00005
  n-local    80.42710    74.53785    79.29376    -1.09262    -0.83839    -1.09264
  augment   -11.66043   -11.66043   -11.66043    -0.00005    -0.00005    -0.00005
  Kinetic    57.74118    55.24961    60.80284    -1.46854    -1.31690    -1.46854
  Fock        0.00000     0.00000     0.00000     0.00000     0.00000     0.00000
  Total       1.29476     1.29476     1.29476    -0.00000     0.00000     0.00000
  in kB      50.86595    50.86595    50.86595    -0.00000     0.00000     0.00000

 VOLUME and BASIS-vectors are now :
  energy-cutoff  :      245.44
  volume of cell :       40.78
      direct lattice vectors                 reciprocal lattice vectors
     0.000000000  2.732000000  2.732000000    -0.183016105  0.183016105  0.183016105
     2.732000000  0.000000000  2.732000000     0.183016105 -0.183016105  0.183016105
     2.732000000  2.732000000  0.000000000     0.183016105  0.183016105 -0.183016105

  length of vectors
     3.863631452  3.863631452  3.863631452     0.316993193  0.316993193  0.316993193

 FORCES acting on ions
    electron-ion (+dipol)            ewald-force                    non-local-force                 convergence-correction
   0.329E-05 0.329E-05 0.329E-05   0.346E-14 0.392E-14 0.369E-14   -.694E-17 0.243E-16 -.520E-17   -.190E-07 -.190E-07 -.190E-07
   -.329E-05 -.329E-05 -.329E-05   -.339E-14 -.399E-14 -.439E-14   -.139E-16 -.347E-16 0.503E-16   0.190E-07 0.190E-07 0.190E-07
   -.858E-15 -.663E-14 0.282E-14   0.708E-16 -.650E-16 -.707E-15   -.208E-16 -.104E-16 0.451E-16   0.650E-15 -.176E-16 -.496E-15

 POSITION                                       TOTAL-FORCE (eV/Angst)
      0.00000      0.00000      0.00000         0.000000     -0.000000     -0.000000
      1.36600      1.36600      1.36600        -0.000000      0.000000      0.000000
    total drift:                               -0.000000     -0.000000      0.000000

  FREE ENERGIE OF THE ION-ELECTRON SYSTEM (eV)
  free  energy   TOTEN  =       -10.06942273 eV

  energy  without entropy=      -10.07186930  energy(sigma->0) =      -10.07023825