 vasp.5.3.5 31Mar14 (build Dec 14 2018 19:18:10) complex

 INCAR:
 POTCAR:    PAW Ga
 POTCAR:    PAW As
 POTCAR:    PAW Ga
   VRHFIN =Ga: s2p1

   TITEL  = PAW Ga
   POMASS =   69.723; ZVAL   =   13.000    mass and valenz
   ENMAX  =  282.829; ENMIN  =  212.121 eV
   QCUT   =   -4.559; QGAM   =    9.119    optimization parameters

   Description
     l     E      TYP  RCUT    TYP  RCUT
     2   .000     23  2.300
     2  -.400     23  2.300
     0   .000     23  2.300
     0   .000     23  2.300
     1   .000     23  2.300
     1   .000     23  2.300
     3  -.100      7  2.300

 POTCAR:    PAW As
   VRHFIN =As: s2p3

   TITEL  = PAW As
   POMASS =   74.922; ZVAL   =    5.000    mass and valenz
   ENMAX  =  208.870; ENMIN  =  156.653 eV
   QCUT   =   -3.918; QGAM   =    7.836    optimization parameters

   Description
     l     E      TYP  RCUT    TYP  RCUT
     0   .000     23  2.100
     0   .000     23  2.100
     1   .000     23  2.100
     1   .000     23  2.100
     2   .000     23  2.100
     3  -.100      7  2.100

  PAW Ga                                :
  PAW As                                :

 POSCAR: GaAs in Zincblend structure
  positions in direct lattice
  velocities in cartesian coordinates
 exchange correlation table for  LEXCH =        2
   RHO(1)=    0.500       N(1)  =     2000
   RHO(2)=  100.500       N(2)  =     4000

 ion  position               nearest neighbor table
   1  0.000  0.000  0.000-   2 2.45   2 2.45   2 2.45   2 2.45
   2  0.250  0.250  0.250-   1 2.45   1 2.45   1 2.45   1 2.45

  LATTYP: Found a face centered cubic cell.
 ALAT       =     5.6500000000

  Lattice vectors:

 A1 = (   2.8250000000,   2.8250000000,   0.0000000000)
 A2 = (   0.0000000000,   2.8250000000,   2.8250000000)
 A3 = (   2.8250000000,   0.0000000000,   2.8250000000)

Analysis of symmetry for initial positions (statically):
 Subroutine PRICEL returns:
 Original cell was already a primitive cell.

 Routine SETGRP: Setting up the symmetry group for a
 face centered cubic supercell.

 Subroutine GETGRP returns: Found 24 space group operations
 (whereof 24 operations were pure point group operations)
 out of a pool of 48 trial point group operations.

The static configuration has the point symmetry T_d .

Analysis of symmetry for dynamics (positions and initial velocities):
 Subroutine PRICEL returns:
 Original cell was already a primitive cell.

 Routine SETGRP: Setting up the symmetry group for a
 face centered cubic supercell.

 Subroutine GETGRP returns: Found 24 space group operations
 (whereof 24 operations were pure point group operations)
 out of a pool of 48 trial point group operations.

The dynamic configuration has the point symmetry T_d .

 KPOINTS: 10X10x10

Automatic generation of k-mesh.
Space group operators:
 irot       det(A)        alpha          n_x          n_y          n_z        tau_x        tau_y        tau_z
    1     1.000000     0.000000     1.000000     0.000000     0.000000     0.000000     0.000000     0.000000
    2     1.000000   120.000000    -0.577350    -0.577350    -0.577350     0.000000     0.000000     0.000000
    3     1.000000   120.000000     0.577350     0.577350     0.577350     0.000000     0.000000     0.000000
    4    -1.000000    90.000000     0.000000    -1.000000     0.000000     0.000000     0.000000     0.000000
    5    -1.000000   180.000000     0.707107     0.707107     0.000000     0.000000     0.000000     0.000000
    6    -1.000000    90.000000     1.000000     0.000000     0.000000     0.000000     0.000000     0.000000
    7     1.000000   180.000000     0.000000     1.000000     0.000000     0.000000     0.000000     0.000000
    8     1.000000   120.000000     0.577350     0.577350    -0.577350     0.000000     0.000000     0.000000
    9     1.000000   120.000000     0.577350    -0.577350    -0.577350     0.000000     0.000000     0.000000
   10    -1.000000    90.000000     0.000000     1.000000     0.000000     0.000000     0.000000     0.000000
   11    -1.000000    90.000000     0.000000     0.000000    -1.000000     0.000000     0.000000     0.000000
   12    -1.000000   180.000000     0.000000     0.707107     0.707107     0.000000     0.000000     0.000000
   13     1.000000   120.000000    -0.577350     0.577350     0.577350     0.000000     0.000000     0.000000
   14     1.000000   120.000000    -0.577350     0.577350    -0.577350     0.000000     0.000000     0.000000
   15     1.000000   180.000000     0.000000     0.000000     1.000000     0.000000     0.000000     0.000000
   16    -1.000000    90.000000    -1.000000     0.000000     0.000000     0.000000     0.000000     0.000000
   17    -1.000000   180.000000     0.707107     0.000000     0.707107     0.000000     0.000000     0.000000
   18    -1.000000    90.000000     0.000000     0.000000     1.000000     0.000000     0.000000     0.000000
   19     1.000000   120.000000    -0.577350    -0.577350     0.577350     0.000000     0.000000     0.000000
   20     1.000000   180.000000     1.000000     0.000000     0.000000     0.000000     0.000000     0.000000
   21     1.000000   120.000000     0.577350    -0.577350     0.577350     0.000000     0.000000     0.000000
   22    -1.000000   180.000000     0.707107    -0.707107     0.000000     0.000000     0.000000     0.000000
   23    -1.000000   180.000000     0.707107     0.000000    -0.707107     0.000000     0.000000     0.000000
   24    -1.000000   180.000000     0.000000    -0.707107     0.707107     0.000000     0.000000     0.000000

 Subroutine IBZKPT returns following result:

 Found    110 irreducible k-points:

 Following reciprocal coordinates:
            Coordinates               Weight
  0.050000  0.050000  0.050000     96.000000
  0.150000  0.050000  0.050000    288.000000
  0.250000  0.050000  0.050000    288.000000
  0.350000  0.050000  0.050000    288.000000
  0.450000  0.050000  0.050000    288.000000
 -0.450000  0.050000  0.050000    288.000000
 -0.350000  0.050000  0.050000    288.000000
 -0.250000  0.050000  0.050000    288.000000
 -0.150000  0.050000  0.050000    288.000000
 -0.050000  0.050000  0.050000    288.000000
  0.150000  0.150000  0.050000    288.000000
  0.250000  0.150000  0.050000    576.000000
  0.350000  0.150000  0.050000    576.000000
  0.450000  0.150000  0.050000    576.000000
 -0.450000  0.150000  0.050000    576.000000
 -0.350000  0.150000  0.050000    576.000000
 -0.250000  0.150000  0.050000    576.000000
 -0.150000  0.150000  0.050000    576.000000
 -0.050000  0.150000  0.050000    576.000000
  0.250000  0.250000  0.050000    288.000000
  0.350000  0.250000  0.050000    576.000000
  0.450000  0.250000  0.050000    576.000000
 -0.450000  0.250000  0.050000    576.000000
 -0.350000  0.250000  0.050000    576.000000
 -0.250000  0.250000  0.050000    576.000000
 -0.150000  0.250000  0.050000    576.000000
 -0.050000  0.250000  0.050000    576.000000
  0.350000  0.350000  0.050000    288.000000
  0.450000  0.350000  0.050000    576.000000
 -0.450000  0.350000  0.050000    576.000000
 -0.350000  0.350000  0.050000    576.000000
 -0.250000  0.350000  0.050000    576.000000
 -0.150000  0.350000  0.050000    576.000000
 -0.050000  0.350000  0.050000    576.000000
  0.450000  0.450000  0.050000    288.000000
 -0.450000  0.450000  0.050000    576.000000
 -0.350000  0.450000  0.050000    576.000000
 -0.250000  0.450000  0.050000    576.000000
 -0.150000  0.450000  0.050000    576.000000
 -0.050000  0.450000  0.050000    576.000000
 -0.450000 -0.450000  0.050000    288.000000
 -0.350000 -0.450000  0.050000    576.000000
 -0.250000 -0.450000  0.050000    576.000000
 -0.150000 -0.450000  0.050000    576.000000
 -0.350000 -0.350000  0.050000    288.000000
 -0.250000 -0.350000  0.050000    576.000000
 -0.150000 -0.350000  0.050000    576.000000
 -0.250000 -0.250000  0.050000    288.000000
 -0.150000 -0.250000  0.050000    576.000000
 -0.150000 -0.150000  0.050000    288.000000
  0.150000  0.150000  0.150000     96.000000
  0.250000  0.150000  0.150000    288.000000
  0.350000  0.150000  0.150000    288.000000
  0.450000  0.150000  0.150000    288.000000
 -0.450000  0.150000  0.150000    288.000000
 -0.350000  0.150000  0.150000    288.000000
 -0.250000  0.150000  0.150000    288.000000
 -0.150000  0.150000  0.150000    288.000000
  0.250000  0.250000  0.150000    288.000000
  0.350000  0.250000  0.150000    576.000000
[...]
 -0.350000  0.450000  0.250000    576.000000
 -0.250000  0.450000  0.250000    576.000000
 -0.450000 -0.450000  0.250000    288.000000
 -0.350000 -0.450000  0.250000    576.000000
 -0.350000 -0.350000  0.250000    288.000000
  0.350000  0.350000  0.350000     96.000000
  0.450000  0.350000  0.350000    288.000000
 -0.450000  0.350000  0.350000    288.000000
 -0.350000  0.350000  0.350000    288.000000
  0.450000  0.450000  0.350000    288.000000
 -0.450000  0.450000  0.350000    576.000000
 -0.350000  0.450000  0.350000    576.000000
 -0.450000 -0.450000  0.350000    288.000000
  0.450000  0.450000  0.450000     96.000000
 -0.450000  0.450000  0.450000    288.000000

 Following cartesian coordinates:
            Coordinates               Weight
  0.050000  0.050000  0.050000     96.000000
  0.150000  0.150000 -0.050000    288.000000
  0.250000  0.250000 -0.150000    288.000000
  0.350000  0.350000 -0.250000    288.000000
  0.450000  0.450000 -0.350000    288.000000
 -0.450000 -0.450000  0.550000    288.000000
 -0.350000 -0.350000  0.450000    288.000000
 -0.250000 -0.250000  0.350000    288.000000
 -0.150000 -0.150000  0.250000    288.000000
 -0.050000 -0.050000  0.150000    288.000000
  0.050000  0.250000  0.050000    288.000000
  0.150000  0.350000 -0.050000    576.000000
  0.250000  0.450000 -0.150000    576.000000
  0.350000  0.550000 -0.250000    576.000000
 -0.550000 -0.350000  0.650000    576.000000
 -0.450000 -0.250000  0.550000    576.000000
 -0.350000 -0.150000  0.450000    576.000000
 -0.250000 -0.050000  0.350000    576.000000
 -0.150000  0.050000  0.250000    576.000000
  0.050000  0.450000  0.050000    288.000000
  0.150000  0.550000 -0.050000    576.000000
  0.250000  0.650000 -0.150000    576.000000
 -0.650000 -0.250000  0.750000    576.000000
 -0.550000 -0.150000  0.650000    576.000000
 -0.450000 -0.050000  0.550000    576.000000
 -0.350000  0.050000  0.450000    576.000000
 -0.250000  0.150000  0.350000    576.000000
  0.050000  0.650000  0.050000    288.000000
  0.150000  0.750000 -0.050000    576.000000
 -0.750000 -0.150000  0.850000    576.000000
 -0.650000 -0.050000  0.750000    576.000000
 -0.550000  0.050000  0.650000    576.000000
 -0.450000  0.150000  0.550000    576.000000
 -0.350000  0.250000  0.450000    576.000000
  0.050000  0.850000  0.050000    288.000000
 -0.850000 -0.050000  0.950000    576.000000
 -0.750000  0.050000  0.850000    576.000000
 -0.650000  0.150000  0.750000    576.000000
 -0.550000  0.250000  0.650000    576.000000
 -0.450000  0.350000  0.550000    576.000000
  0.050000 -0.950000  0.050000    288.000000
  0.150000 -0.850000 -0.050000    576.000000
  0.250000 -0.750000 -0.150000    576.000000
  0.350000 -0.650000 -0.250000    576.000000
  0.050000 -0.750000  0.050000    288.000000
[...]
    1.372726    2.670203    2.670203    2.670203   -0.000000    0.000000   -0.000000
    1.402568    2.774338    2.774338    2.774338   -0.000000    0.000000   -0.000000
    1.432409    2.880579    2.880579    2.880579   -0.000000    0.000000   -0.000000
    1.462251    2.989289    2.989289    2.989289   -0.000000    0.000000   -0.000000
    1.492093    3.100895    3.100895    3.100895   -0.000000    0.000000   -0.000000
    1.521935    3.215940    3.215940    3.215940   -0.000000    0.000000   -0.000000
    1.551777    3.335126    3.335126    3.335126   -0.000000   -0.000000   -0.000000
    1.581619    3.459405    3.459405    3.459405   -0.000000   -0.000000   -0.000000
    1.611461    3.590062    3.590062    3.590062   -0.000000   -0.000000   -0.000000
    1.641303    3.728803    3.728803    3.728803   -0.000000   -0.000000   -0.000000
    1.671144    3.877515    3.877515    3.877515   -0.000000    0.000000   -0.000000
    1.700986    4.036745    4.036745    4.036745   -0.000000    0.000000   -0.000000
    1.730828    4.201629    4.201629    4.201629    0.000000    0.000000   -0.000000
    1.760670    4.359126    4.359126    4.359126    0.000000    0.000000   -0.000000
[...]
   23.754124    0.008360    0.008360    0.008360    0.000000    0.000000    0.000000
   23.783965    0.008218    0.008218    0.008218    0.000000    0.000000    0.000000
   23.813807    0.008079    0.008079    0.008079    0.000000    0.000000    0.000000
   23.843649    0.007939    0.007939    0.007939    0.000000    0.000000    0.000000
   23.873491    0.007798    0.007798    0.007798    0.000000    0.000000    0.000000
   23.903333    0.007656    0.007656    0.007656   -0.000000    0.000000    0.000000
   23.933175    0.007516    0.007516    0.007516   -0.000000    0.000000    0.000000
   23.963017    0.007378    0.007378    0.007378   -0.000000    0.000000   -0.000000
   23.992858    0.007243    0.007243    0.007243   -0.000000    0.000000   -0.000000
   24.022700    0.007110    0.007110    0.007110   -0.000000    0.000000   -0.000000
   24.052542    0.006980    0.006980    0.006980   -0.000000    0.000000    0.000000
   24.082384    0.006851    0.006851    0.006851   -0.000000    0.000000    0.000000
   24.112226    0.006722    0.006722    0.006722    0.000000   -0.000000    0.000000
   24.142068    0.006594    0.006594    0.006594    0.000000   -0.000000    0.000000
   24.171910    0.006466    0.006466    0.006466    0.000000
 plasma frequency squared (from intraband transitions)
       0.000       0.000       0.000
       0.000       0.000       0.000
       0.000       0.000       0.000

 electrical conductivity sigma (Mega S m-1) (frequency dependency in vasprun.xml)
       0.000       0.000       0.000
       0.000       0.000       0.000
       0.000       0.000       0.000

 plasma frequency squared (from intraband transitions)

 plasma frequency squared (from interband transitions, int dw w eps(2)(w)
     212.707      -0.000      -0.000
      -0.000     212.707      -0.000
      -0.000      -0.000     212.707
 plasma frequency squared  (valence only):     550.440

  frequency dependent IMAGINARY DIELECTRIC FUNCTION (independent particle, no local field effects)
     E(ev)      X         Y         Z        XY        YZ        ZX
    0.000000    0.000000    0.000000    0.000000    0.000000    0.000000    0.000000
    0.029842    0.009701    0.009701    0.009701   -0.000000   -0.000000   -0.000000
    0.059684    0.019433    0.019433    0.019433   -0.000000   -0.000000   -0.000000
    0.089526    0.029228    0.029228    0.029228   -0.000000   -0.000000   -0.000000
    0.119367    0.039117    0.039117    0.039117   -0.000000   -0.000000   -0.000000
    0.149209    0.049134    0.049134    0.049134   -0.000000   -0.000000   -0.000000
    0.179051    0.059315    0.059315    0.059315   -0.000000   -0.000000   -0.000000
    0.208893    0.069698    0.069698    0.069698   -0.000000   -0.000000   -0.000000
    0.238735    0.080325    0.080325    0.080325   -0.000000   -0.000000   -0.000000
    0.268577    0.091241    0.091241    0.091241   -0.000000   -0.000000   -0.000000
    0.298419    0.102497    0.102497    0.102497   -0.000000   -0.000000   -0.000000
    0.328261    0.114152    0.114152    0.114152   -0.000000   -0.000000   -0.000000
    0.358102    0.126270    0.126270    0.126270   -0.000000   -0.000000   -0.000000
    0.387944    0.138927    0.138927    0.138927   -0.000000   -0.000000   -0.000000
    0.417786    0.152214    0.152214    0.152214   -0.000000   -0.000000   -0.000000
    0.447628    0.166234    0.166234    0.166234   -0.000000   -0.000000   -0.000000
    0.477470    0.181116    0.181116    0.181116   -0.000000   -0.000000   -0.000000
    0.507312    0.197012    0.197012    0.197012   -0.000000   -0.000000   -0.000000
    0.537154    0.214115    0.214115    0.214115   -0.000000   -0.000000   -0.000000
    0.566995    0.232663    0.232663    0.232663   -0.000000   -0.000000   -0.000000
    0.596837    0.252961    0.252961    0.252961   -0.000000   -0.000000   -0.000000
    0.626679    0.275406    0.275406    0.275406   -0.000000   -0.000000   -0.000000
    0.656521    0.300524    0.300524    0.300524   -0.000000   -0.000000   -0.000000
    0.686363    0.329027    0.329027    0.329027   -0.000000   -0.000000   -0.000000
    0.716205    0.361899    0.361899    0.361899   -0.000000   -0.000000   -0.000000
    0.746047    0.400532    0.400532    0.400532   -0.000000   -0.000000   -0.000000
    0.775888    0.446934    0.446934    0.446934   -0.000000   -0.000000   -0.000000
    0.805730    0.504037    0.504037    0.504037   -0.000000   -0.000000   -0.000000
    0.835572    0.576063    0.576063    0.576063   -0.000000   -0.000000   -0.000000
    0.865414    0.668674    0.668674    0.668674   -0.000000   -0.000000   -0.000000
    0.895256    0.787740    0.787740    0.787740   -0.000000   -0.000000   -0.000000
    0.925098    0.934456    0.934456    0.934456   -0.000000   -0.000000   -0.000000
    0.954940    1.098153    1.098153    1.098153   -0.000000   -0.000000   -0.000000
    0.984782    1.259659    1.259659    1.259659   -0.000000   -0.000000   -0.000000
    1.014623    1.406479    1.406479    1.406479    0.000000   -0.000000   -0.000000
    1.044465    1.537287    1.537287    1.537287    0.000000   -0.000000    0.000000
    1.074307    1.655706    1.655706    1.655706    0.000000   -0.000000    0.000000
    1.104149    1.765711    1.765711    1.765711    0.000000   -0.000000    0.000000
    1.133991    1.870334    1.870334    1.870334    0.000000   -0.000000    0.000000
    1.163833    1.971681    1.971681    1.971681    0.000000   -0.000000    0.000000
    1.193675    2.071187    2.071187    2.071187    0.000000   -0.000000   -0.000000
    1.223516    2.169841    2.169841    2.169841    0.000000   -0.000000   -0.000000
    1.253358    2.268357    2.268357    2.268357   -0.000000   -0.000000   -0.000000
    1.283200    2.367264    2.367264    2.367264   -0.000000   -0.000000   -0.000000
    1.313042    2.466976    2.466976    2.466976   -0.000000   -0.000000   -0.000000
    1.342884    2.567851    2.567851    2.567851   -0.000000    0.000000   -0.000000
    1.372726    2.670203    2.670203    2.670203   -0.000000    0.000000   -0.000000
    1.402568    2.774338    2.774338    2.774338   -0.000000    0.000000   -0.000000
    1.432409    2.880579    2.880579    2.880579   -0.000000    0.000000   -0.000000
    1.462251    2.989289    2.989289    2.989289   -0.000000    0.000000   -0.000000
    1.492093    3.100895    3.100895    3.100895   -0.000000    0.000000   -0.000000
    1.521935    3.215940    3.215940    3.215940   -0.000000    0.000000   -0.000000
    1.551777    3.335126    3.335126    3.335126   -0.000000   -0.000000   -0.000000
    1.581619    3.459405    3.459405    3.459405   -0.000000   -0.000000   -0.000000
    1.611461    3.590062    3.590062    3.590062   -0.000000   -0.000000   -0.000000
    1.641303    3.728803    3.728803    3.728803   -0.000000   -0.000000   -0.000000
    1.671144    3.877515    3.877515    3.877515   -0.000000    0.000000   -0.000000
    1.700986    4.036745    4.036745    4.036745   -0.000000    0.000000   -0.000000
    1.730828    4.201629    4.201629    4.201629    0.000000    0.000000   -0.000000
    1.760670    4.359126    4.359126    4.359126    0.000000    0.000000   -0.000000
[...]
   29.394236    0.001914    0.001914    0.001914   -0.000000   -0.000000   -0.000000
   29.424078    0.001908    0.001908    0.001908   -0.000000   -0.000000   -0.000000
   29.453919    0.001901    0.001901    0.001901   -0.000000   -0.000000   -0.000000
   29.483761    0.001894    0.001894    0.001894   -0.000000   -0.000000   -0.000000
   29.513603    0.001888    0.001888    0.001888   -0.000000   -0.000000   -0.000000
   29.543445    0.001881    0.001881    0.001881   -0.000000   -0.000000   -0.000000
   29.573287    0.001875    0.001875    0.001875   -0.000000   -0.000000   -0.000000
   29.603129    0.001868    0.001868    0.001868   -0.000000   -0.000000   -0.000000
   29.632971    0.001862    0.001862    0.001862   -0.000000   -0.000000   -0.000000
   29.662813    0.001856    0.001856    0.001856   -0.000000   -0.000000   -0.000000
   29.692654    0.001849    0.001849    0.001849   -0.000000   -0.000000   -0.000000
   29.722496    0.001843    0.001843    0.001843   -0.000000   -0.000000   -0.000000
   29.752338    0.001837    0.001837    0.001837   -0.000000   -0.000000   -0.000000
   29.782180    0.001830    0.001830    0.001830   -0.000000   -0.000000   -0.000000
   29.812022    0.001824    0.001824    0.001824   -0.000000   -0.000000   -0.000000

  frequency dependent      REAL DIELECTRIC FUNCTION (independent particle, no local field effects)
     E(ev)      X         Y         Z        XY        YZ        ZX
    0.000000   13.674176   13.674176   13.674176   -0.000000    0.000000   -0.000000
    0.029842   13.675606   13.675606   13.675606   -0.000000    0.000000   -0.000000
    0.059684   13.679899   13.679899   13.679899   -0.000000    0.000000   -0.000000
    0.089526   13.687070   13.687070   13.687070   -0.000000    0.000000   -0.000000
    0.119367   13.697140   13.697140   13.697140   -0.000000    0.000000   -0.000000
    0.149209   13.710135   13.710135   13.710135   -0.000000    0.000000   -0.000000
    0.179051   13.726104   13.726104   13.726104   -0.000000    0.000000   -0.000000
    0.208893   13.745102   13.745102   13.745102   -0.000000    0.000000   -0.000000
    0.238735   13.767178   13.767178   13.767178   -0.000000    0.000000   -0.000000
    0.268577   13.792416   13.792416   13.792416   -0.000000    0.000000   -0.000000
    0.298419   13.820897   13.820897   13.820897   -0.000000    0.000000   -0.000000
    0.328261   13.852726   13.852726   13.852726   -0.000000    0.000000   -0.000000
    0.358102   13.888020   13.888020   13.888020   -0.000000   -0.000000   -0.000000
    0.387944   13.926904   13.926904   13.926904   -0.000000   -0.000000   -0.000000
    0.417786   13.969559   13.969559   13.969559   -0.000000   -0.000000   -0.000000
    0.447628   14.016142   14.016142   14.016142   -0.000000   -0.000000   -0.000000
    0.477470   14.066875   14.066875   14.066875   -0.000000   -0.000000   -0.000000
    0.507312   14.121995   14.121995   14.121995   -0.000000   -0.000000   -0.000000
    0.537154   14.181782   14.181782   14.181782   -0.000000   -0.000000   -0.000000
    0.566995   14.246564   14.246564   14.246564   -0.000000   -0.000000   -0.000000
    0.596837   14.316710   14.316710   14.316710   -0.000000   -0.000000   -0.000000
    0.626679   14.392661   14.392661   14.392661   -0.000000   -0.000000   -0.000000
    0.656521   14.474929   14.474929   14.474929   -0.000000   -0.000000   -0.000000
    0.686363   14.564109   14.564109   14.564109   -0.000000   -0.000000   -0.000000
    0.716205   14.660861   14.660861   14.660861   -0.000000   -0.000000   -0.000000
    0.746047   14.765892   14.765892   14.765892   -0.000000   -0.000000   -0.000000
    0.775888   14.879880   14.879880   14.879880   -0.000000   -0.000000   -0.000000
    0.805730   15.003204   15.003204   15.003204   -0.000000   -0.000000   -0.000000
    0.835572   15.135351   15.135351   15.135351   -0.000000   -0.000000   -0.000000
    0.865414   15.273568   15.273568   15.273568   -0.000000   -0.000000   -0.000000
    0.895256   15.410491   15.410491   15.410491   -0.000000   -0.000000   -0.000000
    0.925098   15.532551   15.532551   15.532551   -0.000000   -0.000000   -0.000000
    0.954940   15.625547   15.625547   15.625547   -0.000000   -0.000000   -0.000000
    0.984782   15.687629   15.687629   15.687629   -0.000000   -0.000000   -0.000000
    1.014623   15.730042   15.730042   15.730042    0.000000   -0.000000   -0.000000
    1.044465   15.764930   15.764930   15.764930    0.000000   -0.000000   -0.000000
    1.074307   15.799396   15.799396   15.799396   -0.000000   -0.000000   -0.000000
    1.104149   15.836572   15.836572   15.836572   -0.000000    0.000000   -0.000000
    1.133991   15.877556   15.877556   15.877556   -0.000000    0.000000   -0.000000
    1.163833   15.922640   15.922640   15.922640   -0.000000    0.000000   -0.000000
    1.193675   15.971764   15.971764   15.971764   -0.000000    0.000000   -0.000000
    1.223516   16.024827   16.024827   16.024827   -0.000000    0.000000   -0.000000
    1.253358   16.081718   16.081718   16.081718   -0.000000    0.000000   -0.000000
    1.283200   16.142369   16.142369   16.142369   -0.000000    0.000000   -0.000000
    1.313042   16.206780   16.206780   16.206780   -0.000000    0.000000   -0.000000
    1.342884   16.275023   16.275023   16.275023   -0.000000    0.000000   -0.000000
    1.372726   16.347196   16.347196   16.347196   -0.000000    0.000000   -0.000000
    1.402568   16.423501   16.423501   16.423501   -0.000000    0.000000   -0.000000
    1.432409   16.504144   16.504144   16.504144   -0.000000    0.000000   -0.000000
    1.462251   16.589457   16.589457   16.589457   -0.000000    0.000000   -0.000000
    1.492093   16.679799   16.679799   16.679799    0.000000   -0.000000   -0.000000
    1.521935   16.775577   16.775577   16.775577    0.000000   -0.000000   -0.000000
    1.551777   16.877231   16.877231   16.877231    0.000000   -0.000000   -0.000000
    1.581619   16.985211   16.985211   16.985211    0.000000    0.000000   -0.000000
    1.611461   17.099750   17.099750   17.099750    0.000000    0.000000   -0.000000
    1.641303   17.220558   17.220558   17.220558    0.000000    0.000000   -0.000000
    1.671144   17.346113   17.346113   17.346113    0.000000    0.000000   -0.000000
    1.700986   17.472510   17.472510   17.472510    0.000000    0.000000   -0.000000
    1.730828   17.594498   17.594498   17.594498    0.000000    0.000000   -0.000000
    1.760670   17.713912   17.713912   17.713912    0.000000    0.000000   -0.000000
[...]
   29.394236    0.739059    0.739059    0.739059    0.000000    0.000000    0.000000
   29.424078    0.739629    0.739629    0.739629    0.000000    0.000000    0.000000
   29.453919    0.740198    0.740198    0.740198    0.000000    0.000000    0.000000
   29.483761    0.740764    0.740764    0.740764    0.000000    0.000000    0.000000
   29.513603    0.741328    0.741328    0.741328    0.000000    0.000000    0.000000
   29.543445    0.741890    0.741890    0.741890    0.000000    0.000000    0.000000
   29.573287    0.742451    0.742451    0.742451    0.000000    0.000000    0.000000
   29.603129    0.743009    0.743009    0.743009    0.000000    0.000000    0.000000
   29.632971    0.743566    0.743566    0.743566    0.000000    0.000000    0.000000
   29.662813    0.744121    0.744121    0.744121    0.000000    0.000000    0.000000
   29.692654    0.744673    0.744673    0.744673    0.000000    0.000000    0.000000
   29.722496    0.745224    0.745224    0.745224    0.000000    0.000000    0.000000
   29.752338    0.745773    0.745773    0.745773    0.000000    0.000000    0.000000
   29.782180    0.746320    0.746320    0.746320    0.000000    0.000000    0.000000
   29.812022    0.746865    0.746865    0.746865    0.000000    0.000000    0.000000

 The outermost node in the dielectric function lies at epsilon=  15.1

[...]

volume of typ            2:    16.7 %

total charge

[...]

orbital moment (x)

[...]

orbital moment (y)

[...]

orbital moment (z)

# of ion   s             p             d             tot
   1     0.000000E+00 -0.412398E-02 -0.219613E-02 -0.632011E-02
   2     0.000000E+00  0.691082E-02  0.571312E-03  0.748213E-02
tot      0.000000E+00  0.278684E-02 -0.162482E-02  0.116202E-02

 BZINTS: Fermi energy:  2.969332; 18.000000 electrons
         Band energy:-138.241403;  BLOECHL correction:  0.000000