 vasp.5.4.4.18Apr17-6-g9f103f2a35 (build May 20 2018 16:52:39) complex

 executed on             LinuxIFC date 2022.11.18  01:50:56

 INCAR:
 POTCAR:    PAW W

 POTCAR:    PAW W
   VRHFIN =W: 5p6s5d

   TITEL  = PAW W
   POMASS =  183.850; ZVAL   =    6.000    mass and valenz
   ENMAX  =  223.126; ENMIN  =  167.344 eV
   QCUT   =   -4.050; QGAM   =    8.099    optimization parameters

   Description
     l     E      TYP  RCUT    TYP  RCUT
     2   .000     23  2.500
     2   .000     23  2.500
     0   .000     23  2.500
     0   .000     23  2.500
     1   .200     23  2.750
     1  2.000     23  2.750
     3   .000      7   .000

  PAW W                                 :

 POSCAR: BCC W 5-layers
  positions in direct lattice
 exchange correlation table for  LEXCH =        2
   RHO(1)=    0.500       N(1)  =     2000
   RHO(2)=  100.500       N(2)  =     4000

 ion  position               nearest neighbor table
   1  0.000  0.000  0.000-   2 2.74   2 2.74   2 2.74   2 2.74   3 3.16
   2  0.500  0.500  0.100-   1 2.74   3 2.74   1 2.74   3 2.74   1 2.74   3 2.74   1 2.74   3 2.74
                             4 3.16
   3  0.000  0.000  0.200-   4 2.74   4 2.74   4 2.74   4 2.74   2 2.74   2 2.74   2 2.74   2 2.74
                             5 3.16   1 3.16
   4  0.500  0.500  0.300-   3 2.74   3 2.74   3 2.74   3 2.74   5 2.74   5 2.74   5 2.74   5 2.74
                             2 3.16
   5  0.000  0.000  0.400-   4 2.74   4 2.74   4 2.74   4 2.74   3 3.16

  LATTYP: Found a simple tetragonal cell.
 ALAT       =     3.1600000000
 C/A-ratio  =     5.0000000000

  Lattice vectors:

 A1 = (   3.1600000000,   0.0000000000,   0.0000000000)
 A2 = (   0.0000000000,   3.1600000000,   0.0000000000)
 A3 = (   0.0000000000,   0.0000000000,  15.8000000000)

Analysis of symmetry for initial positions (statically):
 Subroutine PRICEL returns:
 Original cell was already a primitive cell.

 Routine SETGRP: Setting up the symmetry group for a
 simple tetragonal supercell.

 Subroutine GETGRP returns: Found 16 space group operations
 (whereof  8 operations were pure point group operations)
 out of a pool of 16 trial point group operations.

The static configuration has the point symmetry C_4v.
 The point group associated with its full space group is D_4h.

Analysis of symmetry for dynamics (positions and initial velocities):
 Subroutine PRICEL returns:
 Original cell was already a primitive cell.

 Routine SETGRP: Setting up the symmetry group for a
 simple tetragonal supercell.

 Subroutine GETGRP returns: Found 16 space group operations
 (whereof  8 operations were pure point group operations)
 out of a pool of 16 trial point group operations.

The dynamic configuration has the point symmetry C_4v.
 The point group associated with its full space group is D_4h.

 Subroutine INISYM returns: Found 16 space group operations
 (whereof  8 operations are pure point group operations),
 and found     1 'primitive' translations

 KPOINTS: K-Path Generated by VASPKIT.
  interpolating k-points between supplied coordinates
  k-points in reciprocal lattice
Space group operators:
 irot       det(A)        alpha          n_x          n_y          n_z        tau_x        tau_y        tau_z
    1     1.000000     0.000000     1.000000     0.000000     0.000000     0.000000     0.000000     0.000000
    2     1.000000    90.000000     0.000000     0.000000    -1.000000     0.000000     0.000000     0.000000
    3     1.000000   180.000000     0.000000     0.000000     1.000000     0.000000     0.000000     0.000000
    4     1.000000    90.000000     0.000000     0.000000     1.000000     0.000000     0.000000     0.000000
    5    -1.000000   180.000000     0.000000     1.000000     0.000000     0.000000     0.000000     0.000000
    6    -1.000000   180.000000     0.707107     0.707107     0.000000     0.000000     0.000000     0.000000
    7    -1.000000   180.000000     1.000000     0.000000     0.000000     0.000000     0.000000     0.000000
    8    -1.000000   180.000000     0.707107    -0.707107     0.000000     0.000000     0.000000     0.000000
    9    -1.000000     0.000000     1.000000     0.000000     0.000000     0.000000     0.000000     0.400000
   10    -1.000000    90.000000     0.000000     0.000000    -1.000000     0.000000     0.000000     0.400000
   11    -1.000000   180.000000     0.000000     0.000000     1.000000     0.000000     0.000000     0.400000
   12    -1.000000    90.000000     0.000000     0.000000     1.000000     0.000000     0.000000     0.400000
   13     1.000000   180.000000     0.000000     1.000000     0.000000     0.000000     0.000000     0.400000
   14     1.000000   180.000000     0.707107     0.707107     0.000000     0.000000     0.000000     0.400000
   15     1.000000   180.000000     1.000000     0.000000     0.000000     0.000000     0.000000     0.400000
   16     1.000000   180.000000     0.707107    -0.707107     0.000000     0.000000     0.000000     0.400000

 SYSTEM =  unknown system
 POSCAR =  BCC W 5-layers

 Startparameter for this run:
   NWRITE =      2    write-flag & timer
   PREC   = normal    normal or accurate (medium, high low for compatibility)
   ISTART =      0    job   : 0-new  1-cont  2-samecut
   ICHARG =     11    charge: 1-file 2-atom 10-const
   ISPIN  =      1    spin polarized calculation?
   LNONCOLLINEAR =      F non collinear calculations
   LSORBIT =      F    spin-orbit coupling
   INIWAV =      1    electr: 0-lowe 1-rand  2-diag
   LASPH  =      F    aspherical Exc in radial PAW
   METAGGA=      F    non-selfconsistent MetaGGA calc.

 Electronic Relaxation 1
   ENCUT  =  600.0 eV  44.10 Ry    6.64 a.u.   6.31  6.31 31.56*2*pi/ulx,y,z
   ENINI  =  600.0     initial cutoff
   ENAUG  =  373.4 eV  augmentation charge cutoff
   NELM   =     60;   NELMIN=  2; NELMDL= -5     # of ELM steps
   EDIFF  = 0.1E-05   stopping-criterion for ELM
   LREAL  =      F    real-space projection
   NLSPLINE    = F    spline interpolate recip. space projectors
   LCOMPAT=      F    compatible to vasp.4.4
   GGA_COMPAT  = T    GGA compatible to vasp.4.4-vasp.4.6
   LMAXPAW     = -100 max onsite density
   LMAXMIX     =    2 max onsite mixed and CHGCAR
   VOSKOWN=      0    Vosko Wilk Nusair interpolation
   ROPT   =    0.00000
 Ionic relaxation
   EDIFFG = 0.1E-04   stopping-criterion for IOM
   NSW    =      0    number of steps for IOM
   NBLOCK =      1;   KBLOCK =      1    inner block; outer block
   IBRION =     -1    ionic relax: 0-MD 1-quasi-New 2-CG
   NFREE  =      0    steps in history (QN), initial steepest desc. (CG)
   ISIF   =      2    stress and relaxation
   IWAVPR =     10    prediction:  0-non 1-charg 2-wave 3-comb
   ISYM   =      2    0-nonsym 1-usesym 2-fastsym
   LCORR  =      T    Harris-Foulkes like correction to forces

   POTIM  = 0.5000    time-step for ionic-motion
   TEIN   =    0.0    initial temperature
   TEBEG  =    0.0;   TEEND  =   0.0 temperature during run
   SMASS  =  -3.00    Nose mass-parameter (am)
   estimated Nose-frequenzy (Omega)   =  0.10E-29 period in steps =****** mass=  -0.228E-27a.u.
   SCALEE = 1.0000    scale energy and forces
   NPACO  =    256;   APACO  = 16.0  distance and # of slots for P.C.
   PSTRESS=    0.0 pullay stress

  Mass of Ions in am
   POMASS = 183.85
  Ionic Valenz
   ZVAL   =   6.00
  Atomic Wigner-Seitz radii
  virtual crystal weights
   VCA    =   1.00
   NELECT =      30.0000    total number of electrons
   NUPDOWN=      -1.0000    fix difference up-down

 DOS related values:
   EMIN   =  10.00;   EMAX   =-10.00  energy-range for DOS
   EFERMI =   0.00
   ISMEAR =     0;   SIGMA  =   0.05  broadening in eV -4-tet -1-fermi 0-gaus

 Electronic relaxation 2 (details)
   IALGO  =     38    algorithm
   LDIAG  =      T    sub-space diagonalisation (order eigenvalues)
   LSUBROT=      F    optimize rotation matrix (better conditioning)
   TURBO    =      0    0=normal 1=particle mesh
   IRESTART =      0    0=no restart 2=restart with 2 vectors
   NREBOOT  =      0    no. of reboots
   NMIN     =      0    reboot dimension
   EREF     =   0.00    reference energy to select bands
   IMIX   =      4    mixing-type and parameters
     AMIX     =   0.40;   BMIX     =  1.00
     AMIX_MAG =   1.60;   BMIX_MAG =  1.00
     AMIN     =   0.10
     WC   =   100.;   INIMIX=   1;  MIXPRE=   1;  MAXMIX= -45

 Intra band minimization:
   WEIMIN = 0.0000     energy-eigenvalue tresh-hold
   EBREAK =  0.62E-08  absolut break condition
   DEPER  =   0.30     relativ break condition

   TIME   =   0.40     timestep for ELM

  volume/ion in A,a.u.               =      31.55       212.94
  Fermi-wavevector in a.u.,A,eV,Ry     =   0.941394  1.778977 12.057795  0.886223
  Thomas-Fermi vector in A             =   2.068901

 Write flags
   LWAVE        =      T    write WAVECAR
   LDOWNSAMPLE  =      F    k-point downsampling of WAVECAR
   LCHARG       =      F    write CHGCAR
   LVTOT        =      F    write LOCPOT, total local potential
   LVHAR        =      F    write LOCPOT, Hartree potential only
   LELF         =      F    write electronic localiz. function (ELF)
   LORBIT       =      0    0 simple, 1 ext, 2 COOP (PROOUT), +10 PAW based schemes

 Dipole corrections
   LMONO  =      F    monopole corrections only (constant potential shift)
   LDIPOL =      F    correct potential (dipole corrections)
   IDIPOL =      0    1-x, 2-y, 3-z, 4-all directions
   EPSILON=  1.0000000 bulk dielectric constant

 Exchange correlation treatment:
   GGA     =    --    GGA type
   VOSKOWN=      0    Vosko Wilk Nusair interpolation
   LHFCALC =     F    Hartree Fock is set to
   LHFONE  =     F    Hartree Fock one center treatment
   AEXX    =    0.0000 exact exchange contribution

 Linear response parameters
   LEPSILON=     F    determine dielectric tensor
   LRPA    =     F    only Hartree local field effects (RPA)
   LNABLA  =     F    use nabla operator in PAW spheres
   LVEL    =     F    velocity operator in full k-point grid
   LINTERFAST=   F  fast interpolation
   KINTER  =     0    interpolate to denser k-point grid
   CSHIFT  =0.1000    complex shift for real part using Kramers Kronig
   OMEGAMAX=  -1.0    maximum frequency
   DEG_THRESHOLD= 0.2000000E-02 threshold for treating states as degnerate
   RTIME   =   -0.100 relaxation time in fs
  (WPLASMAI=    0.000 imaginary part of plasma frequency in eV, 0.658/RTIME)
   DFIELD  = 0.0000000 0.0000000 0.0000000 field for delta impulse in time

 Orbital magnetization related:
   ORBITALMAG=     F  switch on orbital magnetization
   LCHIMAG   =     F  perturbation theory with respect to B field
   DQ        =  0.001000  dq finite difference perturbation B field
   LLRAUG    =     F  two centre corrections for induced B field

 Static calculation
 charge density and potential remain constant during run
 non-spin polarized calculation
 Variant of blocked Davidson
 Davidson routine will perform the subspace rotation
 perform sub-space diagonalisation
    after iterative eigenvector-optimisation
 no mixing
 using additional bands           25
 reciprocal scheme for non local part
 use partial core corrections
 calculate Harris-corrections to forces
[...]
   0.02631579  0.02631579  0.00000000       0.017
   0.00000000  0.00000000  0.00000000       0.017

 k-points in reciprocal lattice and weights: K-Path Generated by VASPKIT.
   0.00000000  0.00000000  0.00000000       0.017
   0.02631579  0.00000000  0.00000000       0.017
   0.05263158  0.00000000  0.00000000       0.017
   0.07894737  0.00000000  0.00000000       0.017
   0.10526316  0.00000000  0.00000000       0.017
   0.13157895  0.00000000  0.00000000       0.017
   0.15789474  0.00000000  0.00000000       0.017
   0.18421053  0.00000000  0.00000000       0.017
   0.21052632  0.00000000  0.00000000       0.017
   0.23684211  0.00000000  0.00000000       0.017
   0.26315789  0.00000000  0.00000000       0.017
   0.28947368  0.00000000  0.00000000       0.017
   0.31578947  0.00000000  0.00000000       0.017
   0.34210526  0.00000000  0.00000000       0.017
   0.36842105  0.00000000  0.00000000       0.017
   0.39473684  0.00000000  0.00000000       0.017
   0.42105263  0.00000000  0.00000000       0.017
   0.44736842  0.00000000  0.00000000       0.017
   0.47368421  0.00000000  0.00000000       0.017
   0.50000000  0.00000000  0.00000000       0.017
   0.50000000  0.00000000  0.00000000       0.017
   0.50000000  0.02631579  0.00000000       0.017
   0.50000000  0.05263158  0.00000000       0.017
   0.50000000  0.07894737  0.00000000       0.017
   0.50000000  0.10526316  0.00000000       0.017
   0.50000000  0.13157895  0.00000000       0.017
   0.50000000  0.15789474  0.00000000       0.017
   0.50000000  0.18421053  0.00000000       0.017
   0.50000000  0.21052632  0.00000000       0.017
   0.50000000  0.23684211  0.00000000       0.017
   0.50000000  0.26315789  0.00000000       0.017
   0.50000000  0.28947368  0.00000000       0.017
   0.50000000  0.31578947  0.00000000       0.017
   0.50000000  0.34210526  0.00000000       0.017
   0.50000000  0.36842105  0.00000000       0.017
   0.50000000  0.39473684  0.00000000       0.017
   0.50000000  0.42105263  0.00000000       0.017
   0.50000000  0.44736842  0.00000000       0.017
   0.50000000  0.47368421  0.00000000       0.017
   0.50000000  0.50000000  0.00000000       0.017
   0.50000000  0.50000000  0.00000000       0.017
   0.47368421  0.47368421  0.00000000       0.017
   0.44736842  0.44736842  0.00000000       0.017
   0.42105263  0.42105263  0.00000000       0.017
   0.39473684  0.39473684  0.00000000       0.017
   0.36842105  0.36842105  0.00000000       0.017
   0.34210526  0.34210526  0.00000000       0.017
   0.31578947  0.31578947  0.00000000       0.017
   0.28947368  0.28947368  0.00000000       0.017
   0.26315789  0.26315789  0.00000000       0.017
   0.23684211  0.23684211  0.00000000       0.017
   0.21052632  0.21052632  0.00000000       0.017
   0.18421053  0.18421053  0.00000000       0.017
   0.15789474  0.15789474  0.00000000       0.017
   0.13157895  0.13157895  0.00000000       0.017
   0.10526316  0.10526316  0.00000000       0.017
   0.07894737  0.07894737  0.00000000       0.017
   0.05263158  0.05263158  0.00000000       0.017
   0.02631579  0.02631579  0.00000000       0.017
   0.00000000  0.00000000  0.00000000       0.017

 position of ions in fractional coordinates (direct lattice)
   0.00000000  0.00000000  0.00000000
   0.50000000  0.50000000  0.10000000
   0.00000000  0.00000000  0.20000000
   0.50000000  0.50000000  0.30000000
   0.00000000  0.00000000  0.40000000

 position of ions in cartesian coordinates  (Angst):
   0.00000000  0.00000000  0.00000000
   1.58000000  1.58000000  1.58000000
   0.00000000  0.00000000  3.16000000
   1.58000000  1.58000000  4.74000000
   0.00000000  0.00000000  6.32000000

 k-point  1 :   0.0000 0.0000 0.0000  plane waves:    5231
 k-point  2 :   0.0263 0.0000 0.0000  plane waves:    5235
 k-point  3 :   0.0526 0.0000 0.0000  plane waves:    5255
 k-point  4 :   0.0789 0.0000 0.0000  plane waves:    5251
 k-point  5 :   0.1053 0.0000 0.0000  plane waves:    5259
 k-point  6 :   0.1316 0.0000 0.0000  plane waves:    5247
 k-point  7 :   0.1579 0.0000 0.0000  plane waves:    5265
 k-point  8 :   0.1842 0.0000 0.0000  plane waves:    5271
 k-point  9 :   0.2105 0.0000 0.0000  plane waves:    5281
 k-point 10 :   0.2368 0.0000 0.0000  plane waves:    5289
 k-point 11 :   0.2632 0.0000 0.0000  plane waves:    5285
 k-point 12 :   0.2895 0.0000 0.0000  plane waves:    5291
 k-point 13 :   0.3158 0.0000 0.0000  plane waves:    5274
 k-point 14 :   0.3421 0.0000 0.0000  plane waves:    5290
 k-point 15 :   0.3684 0.0000 0.0000  plane waves:    5300
 k-point 16 :   0.3947 0.0000 0.0000  plane waves:    5292
 k-point 17 :   0.4211 0.0000 0.0000  plane waves:    5288
 k-point 18 :   0.4474 0.0000 0.0000  plane waves:    5296
 k-point 19 :   0.4737 0.0000 0.0000  plane waves:    5300
 k-point 20 :   0.5000 0.0000 0.0000  plane waves:    5296
 k-point 21 :   0.5000 0.0000 0.0000  plane waves:    5296
 k-point 22 :   0.5000 0.0263 0.0000  plane waves:    5292
 k-point 23 :   0.5000 0.0526 0.0000  plane waves:    5296
 k-point 24 :   0.5000 0.0789 0.0000  plane waves:    5280
 k-point 25 :   0.5000 0.1053 0.0000  plane waves:    5266
 k-point 26 :   0.5000 0.1316 0.0000  plane waves:    5256
 k-point 27 :   0.5000 0.1579 0.0000  plane waves:    5268
 k-point 28 :   0.5000 0.1842 0.0000  plane waves:    5268
 k-point 29 :   0.5000 0.2105 0.0000  plane waves:    5278
 k-point 30 :   0.5000 0.2368 0.0000  plane waves:    5278
 k-point 31 :   0.5000 0.2632 0.0000  plane waves:    5252
 k-point 32 :   0.5000 0.2895 0.0000  plane waves:    5248
 k-point 33 :   0.5000 0.3158 0.0000  plane waves:    5242
 k-point 34 :   0.5000 0.3421 0.0000  plane waves:    5250
 k-point 35 :   0.5000 0.3684 0.0000  plane waves:    5250
 k-point 36 :   0.5000 0.3947 0.0000  plane waves:    5250
 k-point 37 :   0.5000 0.4211 0.0000  plane waves:    5238
 k-point 38 :   0.5000 0.4474 0.0000  plane waves:    5236
 k-point 39 :   0.5000 0.4737 0.0000  plane waves:    5248
 k-point 40 :   0.5000 0.5000 0.0000  plane waves:    5248
 k-point 41 :   0.5000 0.5000 0.0000  plane waves:    5248
 k-point 42 :   0.4737 0.4737 0.0000  plane waves:    5256
 k-point 43 :   0.4474 0.4474 0.0000  plane waves:    5245
 k-point 44 :   0.4211 0.4211 0.0000  plane waves:    5251
 k-point 45 :   0.3947 0.3947 0.0000  plane waves:    5249
 k-point 46 :   0.3684 0.3684 0.0000  plane waves:    5241
 k-point 47 :   0.3421 0.3421 0.0000  plane waves:    5245
 k-point 48 :   0.3158 0.3158 0.0000  plane waves:    5243
 k-point 49 :   0.2895 0.2895 0.0000  plane waves:    5249
 k-point 50 :   0.2632 0.2632 0.0000  plane waves:    5255
 k-point 51 :   0.2368 0.2368 0.0000  plane waves:    5255
 k-point 52 :   0.2105 0.2105 0.0000  plane waves:    5257
 k-point 53 :   0.1842 0.1842 0.0000  plane waves:    5265
 k-point 54 :   0.1579 0.1579 0.0000  plane waves:    5293
 k-point 55 :   0.1316 0.1316 0.0000  plane waves:    5283
 k-point 56 :   0.1053 0.1053 0.0000  plane waves:    5281
 k-point 57 :   0.0789 0.0789 0.0000  plane waves:    5271
 k-point 58 :   0.0526 0.0526 0.0000  plane waves:    5261
 k-point 59 :   0.0263 0.0263 0.0000  plane waves:    5249
 k-point 60 :   0.0000 0.0000 0.0000  plane waves:    5231

 maximum and minimum number of plane-waves per node :      5300     5231

 maximum number of plane-waves:      5300
 maximum index in each direction:
   IXMAX=    6   IYMAX=    6   IZMAX=   31
   IXMIN=   -6   IYMIN=   -6   IZMIN=  -31

 serial   3D FFT for wavefunctions
 parallel 3D FFT for charge:
    minimum data exchange during FFTs selected (reduces bandwidth)

 initial charge density was supplied:
 number of electron      30.0000001 magnetization
 keeping initial charge density in first step

 Maximum index for augmentation-charges          677 (set IRDMAX)

 First call to EWALD:  gamma=   0.328
 Maximum number of real-space cells 4x 4x 1
 Maximum number of reciprocal cells 2x 2x 7

--------------------------------------- Iteration      1(   1)  ---------------------------------------

 eigenvalue-minimisations  :  4800
 total energy-change (2. order) : 0.5990602E+02  (-0.1374702E+04)
 number of electron      30.0000001 magnetization
 augmentation part       30.0000001 magnetization

 Free energy of the ion-electron system (eV)
  alpha Z        PSCENC =       110.60728398
  Ewald energy   TEWEN  =      1319.42101824
  -Hartree energ DENC   =     -2540.01703233
  -exchange      EXHF   =         0.00000000
  -V(xc)+E(xc)   XCENC  =      -236.30648985
  PAW double counting   =      1120.75045550     -838.64837968
  entropy T*S    EENTRO =        -0.00506125
  eigenvalues    EBANDS =        91.42190133
  atomic energy  EATOM  =      1032.68232307
  Solvation  Ediel_sol  =         0.00000000
  free energy    TOTEN  =        59.90601900 eV

  energy without entropy =       59.91108026  energy(sigma->0) =       59.90854963

[...]

 eigenvalue-minimisations  :  7240
 total energy-change (2. order) :-0.1226178E+03  (-0.1207316E+03)
 number of electron      30.0000001 magnetization
 augmentation part       30.0000001 magnetization

[...]

--------------------------------------- Iteration      1(   6)  ---------------------------------------

 eigenvalue-minimisations  :  9520
 total energy-change (2. order) :-0.1721673E-08  (-0.1766364E-08)
 number of electron      30.0000001 magnetization
 augmentation part       30.0000001 magnetization

 Free energy of the ion-electron system (eV)
  alpha Z        PSCENC =       110.60728398
  Ewald energy   TEWEN  =      1319.42101824
  -Hartree energ DENC   =     -2540.01703233
  -exchange      EXHF   =         0.00000000
  -V(xc)+E(xc)   XCENC  =      -236.30648985
  PAW double counting   =      1120.75045550     -838.64837968
  entropy T*S    EENTRO =        -0.00790337
  eigenvalues    EBANDS =       -33.18066535
  atomic energy  EATOM  =      1032.68232307
  Solvation  Ediel_sol  =         0.00000000
  free energy    TOTEN  =       -64.69938979 eV

  energy without entropy =      -64.69148643  energy(sigma->0) =      -64.69543811

 average (electrostatic) potential at core
  the test charge radii are     1.1823
  (the norm of the test charge is              1.0000)
       1 -44.2569       2 -44.0779       3 -44.2910       4 -44.0779       5 -44.2568

 E-fermi :   1.8191     XC(G=0):  -8.1888     alpha+bet : -7.3928

 k-point     1 :       0.0000    0.0000    0.0000
  band No.  band energies     occupation
      1      -6.9851      2.00000
      2      -5.0990      2.00000
      3      -3.5911      2.00000
      4      -3.4956      2.00000
      5      -2.9686      2.00000
      6      -2.3164      2.00000
      7      -2.3083      2.00000
      8      -0.6039      2.00000
      9       0.5934      2.00000
     10       0.5934      2.00000
     11       0.9373      2.00000
     12       1.0259      2.00000
     13       1.0259      2.00000
     14       1.4053      2.00000
     15       1.4533      2.00000
     16       1.5000      2.00000
     17       1.8743      0.11815
     18       1.8743      0.11815
     19       2.0924      0.00000
     20       3.2652      0.00000
     21       3.5029      0.00000
     22       3.5029      0.00000
     23       3.5533      0.00000
     24       4.4909      0.00000
     25       5.2309      0.00000
     26       5.3290      0.00000
     27       5.4344      0.00000
     28       5.6895      0.00000
     29       5.6895      0.00000
     30       6.4923      0.00000
     31       6.7602      0.00000
     32       7.0996      0.00000
     33       9.4301      0.00000
     34      11.3380      0.00000
     35      11.5459      0.00000
     36      11.5459      0.00000
     37      14.5813      0.00000
     38      14.5813      0.00000
     39      15.2767      0.00000
     40      16.4444      0.00000

[...]

 k-point    60 :       0.0000    0.0000    0.0000
  band No.  band energies     occupation
      1      -6.9851      2.00000
      2      -5.0990      2.00000
      3      -3.5911      2.00000
      4      -3.4956      2.00000
      5      -2.9686      2.00000
      6      -2.3164      2.00000
      7      -2.3083      2.00000
      8      -0.6039      2.00000
      9       0.5934      2.00000
     10       0.5934      2.00000
     11       0.9373      2.00000
     12       1.0259      2.00000
     13       1.0259      2.00000
     14       1.4053      2.00000
     15       1.4533      2.00000
     16       1.5000      2.00000
     17       1.8743      0.11815
     18       1.8743      0.11815
     19       2.0924      0.00000
     20       3.2652      0.00000
     21       3.5029      0.00000
     22       3.5029      0.00000
     23       3.5533      0.00000
     24       4.4909      0.00000
     25       5.2309      0.00000
     26       5.3290      0.00000
     27       5.4344      0.00000
     28       5.6895      0.00000
     29       5.6895      0.00000
     30       6.4923      0.00000
     31       6.7602      0.00000
     32       7.0996      0.00000
     33       9.4301      0.00000
     34      11.3380      0.00000
     35      11.5459      0.00000
     36      11.5459      0.00000
     37      14.5813      0.00000
     38      14.5813      0.00000
     39      15.2767      0.00000
     40      16.4464      0.00000

 soft charge-density along one line, spin component           1
         0         1         2         3         4         5         6         7         8         9
 total charge-density along one line

------------------------ aborting loop because EDIFF is reached ----------------------------------------

  FORCE on cell =-STRESS in cart. coord.  units (eV):
  Direction    XX          YY          ZZ          XY          YZ          ZX
  Alpha Z   110.60728   110.60728   110.60728
  Ewald    2279.68535  2279.68535 -3239.94969     0.00000     0.00000    -0.00000
  Hartree  2497.55085  2497.55085 -2483.85147    -0.00000    -0.00000    -0.00000
  E(xc)    -132.30194  -132.30194  -132.26455    -0.00000    -0.00000     0.00000
  Local   -5108.49101 -5108.49101  5386.96447    -0.00000    -0.00000    -0.00000
  n-local   -81.29306   -69.40022   -77.20392     1.56679    -0.00000    -0.00000
  augment    26.47414    26.47414    26.52778     0.00000     0.00000     0.00000
  Kinetic   371.22390   400.86479   401.04760     1.20811     0.00000     0.00000
  Fock        0.00000     0.00000     0.00000     0.00000     0.00000     0.00000
  Total     -15.77761   -15.77761    -8.12249     0.00000     0.00000    -0.00000
  in kB    -160.22141  -160.22141   -82.48381     0.00000     0.00000    -0.00000

 VOLUME and BASIS-vectors are now :
  energy-cutoff  :      600.00
  volume of cell :      157.77
      direct lattice vectors                 reciprocal lattice vectors
     3.160000000  0.000000000  0.000000000     0.316455696  0.000000000  0.000000000
     0.000000000  3.160000000  0.000000000     0.000000000  0.316455696  0.000000000
     0.000000000  0.000000000 15.800000000     0.000000000  0.000000000  0.063291139

  length of vectors
     3.160000000  3.160000000 15.800000000     0.316455696  0.316455696  0.063291139

 FORCES acting on ions
    electron-ion (+dipol)            ewald-force                    non-local-force                 convergence-correction
   -.115E-14 -.972E-16 0.616E+03   0.195E-14 0.846E-16 -.614E+03   0.000E+00 0.000E+00 -.457E+01   -.228E-13 0.289E-13 0.391E+01
   -.244E-14 -.738E-14 0.328E+03   -.118E-14 0.891E-15 -.329E+03   -.207E-24 0.000E+00 0.327E+00   0.508E-14 -.159E-13 -.458E-01
   0.157E-14 0.322E-14 -.216E-05   0.194E-14 -.139E-14 -.101E-10   0.207E-24 0.103E-24 -.847E-21   -.715E-15 0.815E-14 -.115E-05
   -.445E-14 -.443E-13 -.328E+03   0.580E-15 -.465E-15 0.329E+03   0.207E-24 0.258E-25 -.327E+00   0.212E-14 0.521E-14 0.458E-01
   0.142E-14 0.285E-14 -.616E+03   -.189E-14 0.500E-15 0.614E+03   0.775E-25 0.000E+00 0.457E+01   0.370E-15 0.793E-14 -.391E+01
   -.505E-14 -.457E-13 -.126E-04   0.140E-14 -.384E-15 -.227E-12   0.284E-24 0.129E-24 0.000E+00   -.160E-13 0.343E-13 -.521E-05

 POSITION                                       TOTAL-FORCE (eV/Angst)
      0.00000      0.00000      0.00000         0.000000     -0.000000      1.081899
      1.58000      1.58000      1.58000         0.000000      0.000000     -0.577084
      0.00000      0.00000      3.16000        -0.000000     -0.000000      0.000000
      1.58000      1.58000      4.74000        -0.000000     -0.000000      0.577084
      0.00000      0.00000      6.32000        -0.000000     -0.000000     -1.081899
    total drift:                               -0.000000     -0.000000     -0.000018

  FREE ENERGIE OF THE ION-ELECTRON SYSTEM (eV)
  free  energy   TOTEN  =       -64.69938979 eV

  energy  without entropy=      -64.69148643  energy(sigma->0) =      -64.69543811

 writing wavefunctions