 vasp.5.3.5 31Mar14 (build Dec 14 2018 19:18:10) complex

 INCAR:
 POTCAR:    PAW Ru
 POTCAR:    PAW Ru
   VRHFIN =Ru: s1 d7

   TITEL  = PAW Ru
   POMASS =  101.070; ZVAL   =    8.000    mass and valenz
   ENMAX  =  213.221; ENMIN  =  159.916 eV
   QCUT   =   -3.959; QGAM   =    7.917    optimization parameters

   Description
     l     E      TYP  RCUT    TYP  RCUT
     2   .000     23  2.600
     2   .000     23  2.600
     0   .000     23  2.600
     0   .000     23  2.600
     1  -.200     23  2.600
     1  2.000     23  2.600
     3   .000      7   .000

  PAW Ru                                :

 POSCAR: hcp Ru
  positions in direct lattice
 exchange correlation table for  LEXCH =        2
   RHO(1)=    0.500       N(1)  =     2000
   RHO(2)=  100.500       N(2)  =     4000

 ion  position               nearest neighbor table
   1  0.000  0.000  0.000-   2 2.65   2 2.65   2 2.65   2 2.65   2 2.65   2 2.65
   2  0.667  0.333  0.500-   1 2.65   1 2.65   1 2.65   1 2.65   1 2.65   1 2.65

  Warning from LATTYP: Monoclinic adjustement (A1->A3, A2->A1, A3->A2)!
  LATTYP: Found a base centered orthorhombic cell.
 ALAT       =     2.7059000000
 B/A-ratio  =     1.7320000000
 C/A-ratio  =     1.5823000000

  Lattice vectors:

 A1 = (   1.3529500000,   2.3433094000,   0.0000000000)
 A2 = (   1.3529500000,  -2.3433094000,   0.0000000000)
 A3 = (   0.0000000000,   0.0000000000,  -4.2815455700)

Analysis of symmetry for initial positions (statically):
 Subroutine PRICEL returns:
 Original cell was already a primitive cell.

 Routine SETGRP: Setting up the symmetry group for a
 base centered orthorhombic supercell.

 Subroutine GETGRP returns: Found  4 space group operations
 (whereof  2 operations were pure point group operations)
 out of a pool of  8 trial point group operations.

The static configuration has the point symmetry C_1h.
 The point group associated with its full space group is C_2h.

Analysis of symmetry for dynamics (positions and initial velocities):
 Subroutine PRICEL returns:
 Original cell was already a primitive cell.

 Routine SETGRP: Setting up the symmetry group for a
 base centered orthorhombic supercell.

 Subroutine GETGRP returns: Found  4 space group operations
 (whereof  2 operations were pure point group operations)
 out of a pool of  8 trial point group operations.

The dynamic configuration has the point symmetry C_1h.
 The point group associated with its full space group is C_2h.

 KPOINTS: 20x20x20

Automatic generation of k-mesh.
Space group operators:
 irot       det(A)        alpha          n_x          n_y          n_z        tau_x        tau_y        tau_z
    1     1.000000     0.000000     1.000000     0.000000     0.000000     0.000000     0.000000     0.000000
    2    -1.000000   179.999999     0.000000     0.000000     1.000000     0.000000     0.000000     0.000000
    3    -1.000000     0.000000     1.000000     0.000000     0.000000     0.666670     0.333330    -0.500000
    4     1.000000   179.999999     0.000000     0.000000     1.000000     0.666670     0.333330    -0.500000

 Subroutine IBZKPT returns following result:

 Found   4000 irreducible k-points:

 Following reciprocal coordinates:
            Coordinates               Weight
  0.025000  0.025000  0.025000     16.000000
  0.025000 -0.050000 -0.025000     16.000000
  0.075000  0.025000  0.025000     16.000000
  0.075000 -0.100000 -0.025000     16.000000
  0.125000  0.025000  0.025000     16.000000
  0.125000 -0.150000 -0.025000     16.000000
  0.175000  0.025000  0.025000     16.000000
  0.175000 -0.200000 -0.025000     16.000000
  0.225000  0.025000  0.025000     16.000000
  0.225000 -0.250000 -0.025000     16.000000
  0.275000  0.025000  0.025000     16.000000
  0.275000 -0.300000 -0.025000     16.000000
  0.325000  0.025000  0.025000     16.000000
  0.325000 -0.350000 -0.025000     16.000000
  0.375000  0.025000  0.025000     16.000000
  0.375000 -0.400000 -0.025000     16.000000
  0.425000  0.025000  0.025000     16.000000
  0.425000 -0.450000 -0.025000     16.000000
  0.475000  0.025000  0.025000     16.000000
  0.475000  0.500000 -0.025000     16.000000
 -0.475000  0.025000  0.025000     16.000000
 -0.475000  0.450000 -0.025000     16.000000
 -0.425000  0.025000  0.025000     16.000000
 -0.425000  0.400000 -0.025000     16.000000
 -0.375000  0.025000  0.025000     16.000000
 -0.375000  0.350000 -0.025000     16.000000
 -0.325000  0.025000  0.025000     16.000000
 -0.325000  0.300000 -0.025000     16.000000
 -0.275000  0.025000  0.025000     16.000000
 -0.275000  0.250000 -0.025000     16.000000
 -0.225000  0.025000  0.025000     16.000000
 -0.225000  0.200000 -0.025000     16.000000
 -0.175000  0.025000  0.025000     16.000000
 -0.175000  0.150000 -0.025000     16.000000
 -0.125000  0.025000  0.025000     16.000000
 -0.125000  0.100000 -0.025000     16.000000
 -0.075000  0.025000  0.025000     16.000000
 -0.075000  0.050000 -0.025000     16.000000
 -0.025000  0.025000  0.025000     16.000000
 -0.025000  0.000000 -0.025000     16.000000
  0.025000  0.075000  0.025000     16.000000
  0.025000 -0.100000 -0.025000     16.000000
  0.075000  0.075000  0.025000     16.000000
  0.075000 -0.150000 -0.025000     16.000000
  0.125000  0.075000  0.025000     16.000000
  0.125000 -0.200000 -0.025000     16.000000
  0.175000  0.075000  0.025000     16.000000
  0.175000 -0.250000 -0.025000     16.000000
  0.225000  0.075000  0.025000     16.000000
  0.225000 -0.300000 -0.025000     16.000000
  0.275000  0.075000  0.025000     16.000000
  0.275000 -0.350000 -0.025000     16.000000
  0.325000  0.075000  0.025000     16.000000
  0.325000 -0.400000 -0.025000     16.000000
  0.375000  0.075000  0.025000     16.000000
  0.375000 -0.450000 -0.025000     16.000000
  0.425000  0.075000  0.025000     16.000000
  0.425000  0.500000 -0.025000     16.000000
  0.475000  0.075000  0.025000     16.000000
  0.475000  0.450000 -0.025000     16.000000
[...]
 -0.375000 -0.100000 -0.475000     16.000000
 -0.325000  0.475000  0.475000     16.000000
 -0.325000 -0.150000 -0.475000     16.000000
 -0.275000  0.475000  0.475000     16.000000
 -0.275000 -0.200000 -0.475000     16.000000
 -0.225000  0.475000  0.475000     16.000000
 -0.225000 -0.250000 -0.475000     16.000000
 -0.175000  0.475000  0.475000     16.000000
 -0.175000 -0.300000 -0.475000     16.000000
 -0.125000  0.475000  0.475000     16.000000
 -0.125000 -0.350000 -0.475000     16.000000
 -0.075000  0.475000  0.475000     16.000000
 -0.075000 -0.400000 -0.475000     16.000000
 -0.025000  0.475000  0.475000     16.000000
 -0.025000 -0.450000 -0.475000     16.000000

 Following cartesian coordinates:
            Coordinates               Weight
  0.025000  0.043303  0.015800     16.000000
  0.025000 -0.043303 -0.015800     16.000000
  0.075000  0.072171  0.015800     16.000000
  0.075000 -0.072171 -0.015800     16.000000
  0.125000  0.101039  0.015800     16.000000
  0.125000 -0.101039 -0.015800     16.000000
  0.175000  0.129908  0.015800     16.000000
  0.175000 -0.129908 -0.015800     16.000000
  0.225000  0.158776  0.015800     16.000000
  0.225000 -0.158776 -0.015800     16.000000
  0.275000  0.187644  0.015800     16.000000
  0.275000 -0.187644 -0.015800     16.000000
  0.325000  0.216513  0.015800     16.000000
  0.325000 -0.216513 -0.015800     16.000000
  0.375000  0.245381  0.015800     16.000000
  0.375000 -0.245381 -0.015800     16.000000
  0.425000  0.274249  0.015800     16.000000
  0.425000 -0.274249 -0.015800     16.000000
  0.475000  0.303118  0.015800     16.000000
  0.475000  0.851617 -0.015800     16.000000
 -0.475000 -0.245381  0.015800     16.000000
 -0.475000  0.245381 -0.015800     16.000000
 -0.425000 -0.216513  0.015800     16.000000
 -0.425000  0.216513 -0.015800     16.000000
 -0.375000 -0.187644  0.015800     16.000000
 -0.375000  0.187644 -0.015800     16.000000
 -0.325000 -0.158776  0.015800     16.000000
 -0.325000  0.158776 -0.015800     16.000000
 -0.275000 -0.129908  0.015800     16.000000
 -0.275000  0.129908 -0.015800     16.000000
 -0.225000 -0.101039  0.015800     16.000000
 -0.225000  0.101039 -0.015800     16.000000
 -0.175000 -0.072171  0.015800     16.000000
 -0.175000  0.072171 -0.015800     16.000000
 -0.125000 -0.043303  0.015800     16.000000
 -0.125000  0.043303 -0.015800     16.000000
 -0.075000 -0.014434  0.015800     16.000000
 -0.075000  0.014434 -0.015800     16.000000
 -0.025000  0.014434  0.015800     16.000000
 -0.025000 -0.014434 -0.015800     16.000000
  0.025000  0.101039  0.015800     16.000000
  0.025000 -0.101039 -0.015800     16.000000
  0.075000  0.129908  0.015800     16.000000
  0.075000 -0.129908 -0.015800     16.000000
  0.125000  0.158776  0.015800     16.000000
  0.125000 -0.158776 -0.015800     16.000000
  0.175000  0.187644  0.015800     16.000000
  0.175000 -0.187644 -0.015800     16.000000
  0.225000  0.216513  0.015800     16.000000
  0.225000 -0.216513 -0.015800     16.000000
  0.275000  0.245381  0.015800     16.000000
  0.275000 -0.245381 -0.015800     16.000000
  0.325000  0.274249  0.015800     16.000000
  0.325000 -0.274249 -0.015800     16.000000
  0.375000  0.303118  0.015800     16.000000
  0.375000 -0.303118 -0.015800     16.000000
  0.425000  0.331986  0.015800     16.000000
  0.425000  0.822748 -0.015800     16.000000
  0.475000  0.360855  0.015800     16.000000
  0.475000  0.793880 -0.015800     16.000000
[...]
 -0.375000 -0.331986 -0.300196     16.000000
 -0.325000  0.360855  0.300196     16.000000
 -0.325000 -0.360855 -0.300196     16.000000
 -0.275000  0.389723  0.300196     16.000000
 -0.275000 -0.389723 -0.300196     16.000000
 -0.225000  0.418591  0.300196     16.000000
 -0.225000 -0.418591 -0.300196     16.000000
 -0.175000  0.447460  0.300196     16.000000
 -0.175000 -0.447460 -0.300196     16.000000
 -0.125000  0.476328  0.300196     16.000000
 -0.125000 -0.476328 -0.300196     16.000000
 -0.075000  0.505196  0.300196     16.000000
 -0.075000 -0.505196 -0.300196     16.000000
 -0.025000  0.534065  0.300196     16.000000
 -0.025000 -0.534065 -0.300196     16.000000

 I would recommend the setting:
   dimension x,y,z NGX =    10 NGY =   10 NGZ =   15
 SYSTEM =  hcp Ru
 POSCAR =  hcp Ru

 Startparameter for this run:
   NWRITE =      2    write-flag & timer
   PREC   = normal    normal or accurate (medium, high low for compatibility)
   ISTART =      0    job   : 0-new  1-cont  2-samecut
   ICHARG =      2    charge: 1-file 2-atom 10-const
   ISPIN  =      1    spin polarized calculation?
   LNONCOLLINEAR =      F non collinear calculations
   LSORBIT =      F    spin-orbit coupling
   INIWAV =      1    electr: 0-lowe 1-rand  2-diag
   LASPH  =      F    aspherical Exc in radial PAW
   METAGGA=      F    non-selfconsistent MetaGGA calc.

 Electronic Relaxation 1
   ENCUT  =  213.2 eV  15.67 Ry    3.96 a.u.   3.22  3.22  5.10*2*pi/ulx,y,z
   ENINI  =  213.2     initial cutoff
   ENAUG  =  333.5 eV  augmentation charge cutoff
   NELM   =     60;   NELMIN=  2; NELMDL= -5     # of ELM steps
   EDIFF  = 0.1E-03   stopping-criterion for ELM
   LREAL  =      F    real-space projection
   NLSPLINE    = F    spline interpolate recip. space projectors
[...]
z    -0.0000    0.0000    0.0095   -0.0000   -0.0000   -0.0000    0.0032    0.0000   -0.0000   -0.0000
z    -0.0006    0.0000    0.0000   -0.0000   -0.0000   -0.0000    0.0000   -0.0000    0.0002    0.0000
z    -0.0000    0.0000   -0.0002    0.0000

------------------------ aborting loop because EDIFF is reached ----------------------------------------

  FORCE on cell =-STRESS in cart. coord.  units (eV):
  Direction    XX          YY          ZZ          XY          YZ          ZX
  Alpha Z   121.84526   121.84526   121.84526
  Ewald    -376.79665  -376.78808  -362.05403    -0.00069     0.00000    -0.00000
  Hartree    17.86587    17.83385    21.70671    -0.00016    -0.00000    -0.00000
  E(xc)     -75.91380   -75.90266   -76.08526     0.00015    -0.00000    -0.00000
  Local      70.58650    70.73685    53.49997     0.00270    -0.00000    -0.00000
  n-local   -24.72897   -24.71588   -23.84151    -0.00075     1.58513    -0.00003
  augment    75.38740    75.33312    74.73706     0.00002    -0.00000     0.00000
  Kinetic   189.62749   189.54467   187.77952    -0.00088    -0.90558     0.00003
  Fock        0.00000     0.00000     0.00000     0.00000     0.00000     0.00000
  Total      -2.12690    -2.11288    -2.41228     0.00039     0.00000     0.00000
  in kB    -125.52096  -124.69313  -142.36272     0.02303     0.00000     0.00000

 VOLUME and BASIS-vectors are now :
  energy-cutoff  :      213.22
  volume of cell :       27.15
      direct lattice vectors                 reciprocal lattice vectors
     2.705900000  0.000000000  0.000000000     0.369562807  0.213373445  0.000000000
    -1.352950000  2.343309400  0.000000000     0.000000000  0.426746891  0.000000000
     0.000000000  0.000000000  4.281545570     0.000000000  0.000000000  0.233560518

  length of vectors
     2.705900000  2.705840470  4.281545570     0.426737502  0.426746891  0.233560518

 FORCES acting on ions
    electron-ion (+dipol)            ewald-force                    non-local-force                 convergence-correction
   -.266E-03 -.333E-02 0.368E-14   0.305E-03 0.132E-02 -.136E-13   0.105E-03 -.641E-02 0.000E+00   0.374E-06 -.320E-04 -.938E-14
   0.265E-03 0.333E-02 0.157E-12   -.305E-03 -.132E-02 0.136E-13   -.105E-03 0.641E-02 0.000E+00   -.374E-06 0.320E-04 0.982E-14
   -.661E-06 0.155E-06 0.160E-12   -.690E-14 -.226E-14 0.000E+00   0.000E+00 0.000E+00 0.000E+00   0.135E-09 -.144E-08 0.440E-15

 POSITION                                       TOTAL-FORCE (eV/Angst)
      0.00000      0.00000      0.00000         0.000145     -0.008443      0.000000
      1.35296      0.78110      2.14077        -0.000145      0.008443      0.000000
    total drift:                               -0.000001      0.000000      0.000000

  FREE ENERGIE OF THE ION-ELECTRON SYSTEM (eV)
  free  energy   TOTEN  =       -21.24799224 eV

  energy  without entropy=      -21.24850359  energy(sigma->0) =      -21.24816269

 writing wavefunctions

 plasma frequency squared (from intraband transitions)
      68.550      -0.000       0.000
      -0.000      68.765       0.000
       0.000       0.000      90.226

 electrical conductivity sigma (Mega S m-1) (frequency dependency in vasprun.xml)
       0.140      -0.000       0.000
      -0.000       0.141       0.000
       0.000       0.000       0.184

 plasma frequency squared (from intraband transitions)

 plasma frequency squared (from interband transitions, int dw w eps(2)(w)
     659.555       0.004       0.000
       0.004     659.836       0.000
       0.000       0.000     649.520
 plasma frequency squared  (valence only):     812.646

  frequency dependent IMAGINARY DIELECTRIC FUNCTION (independent particle, no local field effects)
     E(ev)      X         Y         Z        XY        YZ        ZX
    0.000000    0.000000    0.000000    0.000000    0.000000    0.000000    0.000000
    0.427197   23.264378   22.726954   35.824749   -0.000561    0.000000    0.000000
    0.854393   15.290616   15.283772   75.320517    0.000475    0.000000    0.000000
    1.281590   27.348754   27.908962   44.225294    0.000744    0.000000    0.000000
    1.708786   48.914370   47.569016   45.986269    0.000616    0.000000    0.000000
    2.135983   65.113272   65.883868   46.451871    0.000022    0.000000    0.000000
    2.563179   47.368075   47.071942   30.498973    0.000054    0.000000    0.000000
    2.990376   40.442389   40.476384   25.950843   -0.000470    0.000000    0.000000
    3.417572   24.394666   24.524133   22.469856   -0.000866    0.000000    0.000000
    3.844769   15.896123   15.818219   24.037203   -0.000194    0.000000    0.000000
    4.271966   11.316819   11.289594   14.494757   -0.000095    0.000000    0.000000
    4.699162   10.674485   10.680022    9.602206   -0.000040    0.000000    0.000000
    5.126359    7.067707    7.018439    7.028164    0.000006    0.000000    0.000000
    5.553555    5.663450    5.650370    5.263749    0.000015    0.000000    0.000000
    5.980752    4.553373    4.585540    4.429233    0.000014    0.000000    0.000000
    6.407948    3.956810    4.001841    4.022322   -0.000017    0.000000    0.000000
    6.835145    2.860096    2.866586    3.183422   -0.000007    0.000000    0.000000
    7.262341    2.505788    2.409376    2.473023    0.000007    0.000000    0.000000
    7.689538    1.773097    1.891671    1.847569    0.000008    0.000000    0.000000
    8.116735    1.614209    1.546154    1.518551    0.000008    0.000000    0.000000
    8.543931    1.349105    1.362633    1.245798    0.000013    0.000000    0.000000
    8.971128    1.351034    1.340684    1.059314    0.000015    0.000000    0.000000
    9.398324    1.195809    1.205740    0.934801    0.000009    0.000000    0.000000
    9.825521    1.113983    1.097092    0.917537    0.000021    0.000000    0.000000
   10.252717    1.158251    1.147506    1.081145    0.000021    0.000000    0.000000
   10.679914    1.194318    1.210328    1.239819    0.000043    0.000000    0.000000
   11.107110    1.324030    1.360419    1.683536    0.000020    0.000000    0.000000
   11.534307    1.565171    1.548527    2.084561    0.000029    0.000000    0.000000
   11.961504    1.683352    1.614776    2.062026    0.000012    0.000000    0.000000
   12.388700    1.712652    1.755188    1.818738   -0.000005    0.000000    0.000000
   12.815897    1.768011    1.803025    2.170028    0.000002    0.000000    0.000000
   13.243093    1.697751    1.646211    2.265560    0.000015    0.000000    0.000000
   13.670290    1.678994    1.673283    2.194413    0.000002    0.000000    0.000000
   14.097486    1.664707    1.677776    2.115339    0.000007    0.000000    0.000000
   14.524683    1.813783    1.857429    2.094315    0.000006    0.000000    0.000000
   14.951879    1.774369    1.732820    1.997758   -0.000013    0.000000    0.000000
   15.379076    1.822865    1.827558    1.813633   -0.000006    0.000000    0.000000
   15.806273    1.789331    1.840467    1.849840   -0.000017    0.000000    0.000000
   16.233469    1.905504    1.872684    2.109397   -0.000024    0.000000    0.000000
   16.660666    1.862315    1.855912    2.531350   -0.000022    0.000000    0.000000
   17.087862    2.122546    2.129938    3.303242   -0.000010    0.000000    0.000000
   17.515059    2.173419    2.192087    2.979988   -0.000018    0.000000    0.000000
   17.942255    3.063163    3.079360    2.716427   -0.000009    0.000000    0.000000
   18.369452    5.120330    5.080534    2.837476   -0.000062    0.000000    0.000000
   18.796648    4.292253    4.320459    2.828120    0.000062    0.000000    0.000000
   19.223845    3.303337    3.282394    2.838812   -0.000011    0.000000    0.000000
   19.651042    3.252689    3.252123    2.674300   -0.000064    0.000000    0.000000
   20.078238    3.033897    3.050539    2.818115    0.000038    0.000000    0.000000
   20.505435    2.527809    2.509478    2.510482    0.000000    0.000000    0.000000
   20.932631    2.480943    2.497994    2.424564   -0.000019    0.000000    0.000000
   21.359828    2.156182    2.167431    2.671623    0.000019    0.000000    0.000000
   21.787024    1.848800    1.845510    2.456488    0.000005    0.000000    0.000000
   22.214221    1.527295    1.517347    2.149711   -0.000015    0.000000    0.000000
   22.641417    1.438359    1.458184    1.753374   -0.000016    0.000000    0.000000
   23.068614    1.410305    1.402746    1.418233   -0.000009    0.000000    0.000000
   23.495811    1.359097    1.355561    1.085491   -0.000001    0.000000    0.000000
   23.923007    1.272927    1.306143    1.104109    0.000030    0.000000    0.000000
   24.350204    1.273574    1.229515    1.002587    0.000032    0.000000    0.000000
   24.777400    1.121148    1.143071    0.859403   -0.000025    0.000000    0.000000
   25.204597    1.038002    1.043781    0.762607    0.000040    0.000000    0.000000
[...]
   36.311707    0.004930    0.004932    0.004717    0.000001    0.000000    0.000000
   36.738904    0.004648    0.004649    0.004456    0.000000    0.000000    0.000000
   37.166100    0.004392    0.004393    0.004219    0.000000    0.000000    0.000000
   37.593297    0.004159    0.004160    0.004001    0.000000    0.000000    0.000000
   38.020493    0.003945    0.003947    0.003800    0.000000    0.000000    0.000000
   38.447690    0.003749    0.003750    0.003615    0.000000    0.000000    0.000000
   38.874887    0.003567    0.003569    0.003444    0.000000    0.000000    0.000000
   39.302083    0.003400    0.003401    0.003285    0.000000    0.000000    0.000000
   39.729280    0.003244    0.003245    0.003137    0.000000    0.000000    0.000000
   40.156476    0.003099    0.003100    0.002999    0.000000    0.000000    0.000000
   40.583673    0.002963    0.002965    0.002871    0.000000    0.000000    0.000000
   41.010869    0.002837    0.002838    0.002750    0.000000    0.000000    0.000000
   41.438066    0.002718    0.002719    0.002637    0.000000    0.000000    0.000000
   41.865262    0.002607    0.002608    0.002530    0.000000    0.000000    0.000000
   42.292459    0.002503    0.002504    0.002430    0.000000    0.000000    0.000000

  frequency dependent      REAL DIELECTRIC FUNCTION (independent particle, no local field effects)
     E(ev)      X         Y         Z        XY        YZ        ZX
    0.000000   87.314007   87.786654  114.532634   -0.000201    0.000000    0.000000
    0.427197   41.954784   42.576103   74.821155    0.000928    0.000000    0.000000
    0.854393   46.064876   46.064521   53.469865    0.000348    0.000000    0.000000
    1.281590   51.455323   51.772126   14.255827    0.000259    0.000000    0.000000
    1.708786   46.630066   45.755579   19.649619   -0.000599    0.000000    0.000000
    2.135983   16.954273   17.034256    1.158248   -0.000145    0.000000    0.000000
    2.563179   -5.685491   -5.612336   -7.330898   -0.000749    0.000000    0.000000
    2.990376   -9.956655  -10.238424   -3.741163   -0.001219    0.000000    0.000000
    3.417572  -19.186061  -19.087650   -5.356062    0.000277    0.000000    0.000000
    3.844769  -15.082885  -14.999974   -8.229925    0.000436    0.000000    0.000000
    4.271966  -11.012273  -10.935648  -13.792458    0.000201    0.000000    0.000000
    4.699162   -9.695553   -9.689741  -11.095284    0.000290    0.000000    0.000000
    5.126359   -8.923508   -8.901746   -8.739297    0.000014    0.000000    0.000000
    5.553555   -7.378351   -7.344519   -7.321839    0.000034    0.000000    0.000000
    5.980752   -6.043903   -6.084636   -5.484178    0.000044    0.000000    0.000000
    6.407948   -5.439034   -5.361601   -4.778220    0.000013    0.000000    0.000000
    6.835145   -4.579391   -4.647413   -4.416479    0.000030    0.000000    0.000000
    7.262341   -3.822145   -3.814445   -3.710864    0.000074    0.000000    0.000000
    7.689538   -3.097837   -3.065326   -3.007590    0.000051    0.000000    0.000000
    8.116735   -2.291243   -2.344171   -2.310524    0.000036    0.000000    0.000000
    8.543931   -1.778735   -1.735663   -1.703482    0.000031    0.000000    0.000000
    8.971128   -1.238397   -1.252914   -1.151771    0.000041    0.000000    0.000000
    9.398324   -0.902025   -0.880062   -0.640519    0.000038    0.000000    0.000000
    9.825521   -0.403509   -0.445559   -0.037665    0.000035    0.000000    0.000000
   10.252717   -0.117345   -0.111954    0.388178    0.000018    0.000000    0.000000
   10.679914    0.361427    0.385324    0.835880    0.000039    0.000000    0.000000
   11.107110    0.504087    0.506092    1.177448    0.000013    0.000000    0.000000
   11.534307    0.689269    0.634974    0.826985   -0.000020    0.000000    0.000000
   11.961504    0.670040    0.735659    0.800988   -0.000011    0.000000    0.000000
   12.388700    0.743392    0.760942    0.903662   -0.000012    0.000000    0.000000
   12.815897    0.669646    0.623497    1.022161   -0.000026    0.000000    0.000000
   13.243093    0.806289    0.796867    0.925284    0.000003    0.000000    0.000000
   13.670290    0.805716    0.847396    0.677341   -0.000002    0.000000    0.000000
   14.097486    0.988146    0.976998    0.786376   -0.000009    0.000000    0.000000
   14.524683    1.014662    0.996250    0.708781   -0.000026    0.000000    0.000000
   14.951879    1.039432    1.034459    0.721337   -0.000003    0.000000    0.000000
   15.379076    1.056320    1.103470    0.855943   -0.000022    0.000000    0.000000
   15.806273    1.183544    1.180688    1.184774   -0.000007    0.000000    0.000000
   16.233469    1.318439    1.288573    1.332208   -0.000008    0.000000    0.000000
   16.660666    1.457413    1.480852    1.775375    0.000007    0.000000    0.000000
   17.087862    1.727198    1.720453    1.155808    0.000010    0.000000    0.000000
   17.515059    1.884641    1.890357    0.374078   -0.000000    0.000000    0.000000
   17.942255    2.732929    2.752137    0.476237   -0.000028    0.000000    0.000000
   18.369452    1.554237    1.552381    0.405536    0.000080    0.000000    0.000000
   18.796648   -0.637436   -0.645497    0.245872    0.000017    0.000000    0.000000
   19.223845   -0.557171   -0.534199    0.017116   -0.000010    0.000000    0.000000
   19.651042   -0.380476   -0.387510    0.007197    0.000031    0.000000    0.000000
   20.078238   -1.001447   -1.022325   -0.318024    0.000027    0.000000    0.000000
   20.505435   -0.925101   -0.915945   -0.486714    0.000010    0.000000    0.000000
   20.932631   -0.923190   -0.920896   -0.386970    0.000008    0.000000    0.000000
   21.359828   -1.167890   -1.171851   -0.629459    0.000035    0.000000    0.000000
   21.787024   -1.207276   -1.197820   -0.931020   -0.000012    0.000000    0.000000
   22.214221   -1.031242   -1.015173   -1.221041    0.000004    0.000000    0.000000
   22.641417   -0.872162   -0.885918   -1.542888    0.000020    0.000000    0.000000
   23.068614   -0.751285   -0.785853   -1.244794    0.000026    0.000000    0.000000
   23.495811   -0.792656   -0.748485   -1.154977    0.000027    0.000000    0.000000
   23.923007   -0.762903   -0.809051   -0.947999    0.000036    0.000000    0.000000
   24.350204   -0.779221   -0.768496   -0.950897   -0.000004    0.000000    0.000000
   24.777400   -0.834066   -0.826359   -0.943772   -0.000016    0.000000    0.000000
   25.204597   -0.794753   -0.805060   -0.769660    0.000231    0.000000    0.000000
[...]
   36.311707    0.354874    0.354609    0.371460   -0.000018    0.000000    0.000000
   36.738904    0.375319    0.375060    0.391044   -0.000016    0.000000    0.000000
   37.166100    0.394617    0.394364    0.409565   -0.000014    0.000000    0.000000
   37.593297    0.412871    0.412625    0.427113   -0.000013    0.000000    0.000000
   38.020493    0.430173    0.429933    0.443769   -0.000012    0.000000    0.000000
   38.447690    0.446600    0.446366    0.459602   -0.000011    0.000000    0.000000
   38.874887    0.462221    0.461993    0.474676   -0.000010    0.000000    0.000000
   39.302083    0.477097    0.476875    0.489045   -0.000009    0.000000    0.000000
   39.729280    0.491282    0.491066    0.502759   -0.000008    0.000000    0.000000
   40.156476    0.504825    0.504614    0.515863   -0.000008    0.000000    0.000000
   40.583673    0.517770    0.517564    0.528398   -0.000007    0.000000    0.000000
   41.010869    0.530156    0.529955    0.540400   -0.000007    0.000000    0.000000
   41.438066    0.542018    0.541822    0.551902   -0.000007    0.000000    0.000000
   41.865262    0.553390    0.553199    0.562935   -0.000006    0.000000    0.000000
   42.292459    0.564301    0.564115    0.573527   -0.000006    0.000000    0.000000

 The outermost node in the dielectric function lies at epsilon=  31.5