 vasp.5.4.4.18Apr17-6-g9f103f2a35 (build May 20 2018 16:52:39) complex

 executed on             LinuxIFC date 2022.10.29  11:00:09

 INCAR:
 POTCAR:    PAW Ni
 POTCAR:    PAW O
 POTCAR:    PAW Ni
   VRHFIN =Ni:

   TITEL  = PAW Ni
   POMASS =   58.690; ZVAL   =   10.000    mass and valenz
   ENMAX  =  269.561; ENMIN  =  202.171 eV
   QCUT   =   -4.451; QGAM   =    8.902    optimization parameters

   Description
     l     E      TYP  RCUT    TYP  RCUT
     2   .000     23  2.300
     2   .000     23  2.300
     0   .000     23  2.300
     0   .000     23  2.300
     1  -.200     23  2.300
     1   .000     23  2.300
     3   .000      7   .000

 POTCAR:    PAW O
   VRHFIN =O: s2p4

   TITEL  = PAW O
   POMASS =   16.000; ZVAL   =    6.000    mass and valenz
   ENMAX  =  400.000; ENMIN  =  300.000 eV
   QCUT   =   -5.520; QGAM   =   11.040    optimization parameters

   Description
     l     E      TYP  RCUT    TYP  RCUT
     0   .000     23  1.200
     0  -.700     23  1.200
     1   .000     23  1.520
     1   .600     23  1.520
     2   .000      7  1.500

  PAW Ni                                :
  PAW O                                 :

 POSCAR: NiO AFM
  positions in cartesian coordinates
  velocities in cartesian coordinates
 exchange correlation table for  LEXCH =        7
   RHO(1)=    0.500       N(1)  =     2000
   RHO(2)=  100.500       N(2)  =     4000

 ion  position               nearest neighbor table
   1  0.000  0.000  0.000-   4 2.08   4 2.08   4 2.08   3 2.08   3 2.08   3 2.08   2 2.95   2 2.95
                             2 2.95   2 2.95   2 2.95   2 2.95
   2  0.500  0.500  0.500-   3 2.08   3 2.08   3 2.08   4 2.08   4 2.08   4 2.08   1 2.95   1 2.95
                             1 2.95   1 2.95   1 2.95   1 2.95
   3  0.250  0.250  0.250-   1 2.08   1 2.08   1 2.08   2 2.08   2 2.08   2 2.08
   4  0.750  0.750  0.750-   2 2.08   2 2.08   2 2.08   1 2.08   1 2.08   1 2.08

  LATTYP: Found a trigonal (rhomboedric) cell.
 ALAT       =     5.1071861137
 COS(alpha) =     0.8333333333

  Lattice vectors:

 A1 = (   4.1700000000,   2.0850000000,   2.0850000000)
 A2 = (   2.0850000000,   4.1700000000,   2.0850000000)
 A3 = (   2.0850000000,   2.0850000000,   4.1700000000)

Analysis of symmetry for initial positions (statically):
 Subroutine PRICEL returns following result:

  LATTYP: Found a face centered cubic cell.
 ALAT       =     4.1700000000

[...]

   2 primitive cells build up your supercell.

 Routine SETGRP: Setting up the symmetry group for a
 trigonal (rhombohedral) supercell.

 Subroutine GETGRP returns: Found 12 space group operations
 (whereof 12 operations were pure point group operations)
 out of a pool of 12 trial point group operations.

The static configuration has the point symmetry D_3d.

Analysis of symmetry for dynamics (positions and initial velocities):
 Subroutine PRICEL returns following result:

[...]

The dynamic configuration has the point symmetry D_3d.

Analysis of structural, dynamic, and magnetic symmetry:
 Subroutine PRICEL returns following result:

  LATTYP: Found a face centered cubic cell.
 ALAT       =     4.1700000000

  Lattice vectors:

 A1 = (   2.0850000000,   0.0000000000,  -2.0850000000)
 A2 = (   0.0000000000,   2.0850000000,  -2.0850000000)
 A3 = (   2.0850000000,   2.0850000000,   0.0000000000)

   2 primitive cells build up your supercell.

 Routine SETGRP: Setting up the symmetry group for a
 trigonal (rhombohedral) supercell.

 Subroutine GETGRP returns: Found 12 space group operations
 (whereof 12 operations were pure point group operations)
 out of a pool of 12 trial point group operations.

The magnetic configuration has the point symmetry D_3d.

 Subroutine INISYM returns: Found 12 space group operations
 (whereof 12 operations are pure point group operations),
 and found     2 'primitive' translations

 KPOINTS: 4x4x4

Automatic generation of k-mesh.
Space group operators:
 irot       det(A)        alpha          n_x          n_y          n_z        tau_x        tau_y        tau_z
    1     1.000000     0.000000     1.000000     0.000000     0.000000     0.000000     0.000000     0.000000
    2    -1.000000     0.000000     1.000000     0.000000     0.000000     0.000000     0.000000     0.000000
    3     1.000000   180.000000     0.000000     0.707107    -0.707107     0.000000     0.000000     0.000000
    4    -1.000000   180.000000     0.000000     0.707107    -0.707107     0.000000     0.000000     0.000000
    5     1.000000   120.000000    -0.577350    -0.577350    -0.577350     0.000000     0.000000     0.000000
    6    -1.000000   120.000000    -0.577350    -0.577350    -0.577350     0.000000     0.000000     0.000000
    7     1.000000   180.000000     0.707107    -0.707107     0.000000     0.000000     0.000000     0.000000
    8    -1.000000   180.000000     0.707107    -0.707107     0.000000     0.000000     0.000000     0.000000
    9     1.000000   120.000000     0.577350     0.577350     0.577350     0.000000     0.000000     0.000000
   10    -1.000000   120.000000     0.577350     0.577350     0.577350     0.000000     0.000000     0.000000
   11     1.000000   180.000000     0.707107     0.000000    -0.707107     0.000000     0.000000     0.000000
   12    -1.000000   180.000000     0.707107     0.000000    -0.707107     0.000000     0.000000     0.000000

 Subroutine IBZKPT returns following result:

 Found    110 irreducible k-points:

 Following reciprocal coordinates:
            Coordinates               Weight
  0.050000  0.050000  0.050000      2.000000
  0.150000  0.050000  0.050000      6.000000
  0.250000  0.050000  0.050000      6.000000
  0.350000  0.050000  0.050000      6.000000
  0.450000  0.050000  0.050000      6.000000
 -0.450000  0.050000  0.050000      6.000000
 -0.350000  0.050000  0.050000      6.000000
 -0.250000  0.050000  0.050000      6.000000
 -0.150000  0.050000  0.050000      6.000000
 -0.050000  0.050000  0.050000      6.000000
  0.150000  0.150000  0.050000      6.000000
  0.250000  0.150000  0.050000     12.000000
  0.350000  0.150000  0.050000     12.000000
  0.450000  0.150000  0.050000     12.000000
 -0.450000  0.150000  0.050000     12.000000
 -0.350000  0.150000  0.050000     12.000000
 -0.250000  0.150000  0.050000     12.000000
 -0.150000  0.150000  0.050000     12.000000
 -0.050000  0.150000  0.050000     12.000000
  0.250000  0.250000  0.050000      6.000000
  0.350000  0.250000  0.050000     12.000000
  0.450000  0.250000  0.050000     12.000000
 -0.450000  0.250000  0.050000     12.000000
 -0.350000  0.250000  0.050000     12.000000
 -0.250000  0.250000  0.050000     12.000000
 -0.150000  0.250000  0.050000     12.000000
 -0.050000  0.250000  0.050000     12.000000
  0.350000  0.350000  0.050000      6.000000
  0.450000  0.350000  0.050000     12.000000
 -0.450000  0.350000  0.050000     12.000000
 -0.350000  0.350000  0.050000     12.000000
 -0.250000  0.350000  0.050000     12.000000
 -0.150000  0.350000  0.050000     12.000000
 -0.050000  0.350000  0.050000     12.000000
  0.450000  0.450000  0.050000      6.000000
 -0.450000  0.450000  0.050000     12.000000
 -0.350000  0.450000  0.050000     12.000000
 -0.250000  0.450000  0.050000     12.000000
 -0.150000  0.450000  0.050000     12.000000
 -0.050000  0.450000  0.050000     12.000000
 -0.450000 -0.450000  0.050000      6.000000
 -0.350000 -0.450000  0.050000     12.000000
 -0.250000 -0.450000  0.050000     12.000000
 -0.150000 -0.450000  0.050000     12.000000
 -0.350000 -0.350000  0.050000      6.000000
 -0.250000 -0.350000  0.050000     12.000000
 -0.150000 -0.350000  0.050000     12.000000
 -0.250000 -0.250000  0.050000      6.000000
 -0.150000 -0.250000  0.050000     12.000000
 -0.150000 -0.150000  0.050000      6.000000
  0.150000  0.150000  0.150000      2.000000
  0.250000  0.150000  0.150000      6.000000
  0.350000  0.150000  0.150000      6.000000
  0.450000  0.150000  0.150000      6.000000
 -0.450000  0.150000  0.150000      6.000000
 -0.350000  0.150000  0.150000      6.000000
 -0.250000  0.150000  0.150000      6.000000
 -0.150000  0.150000  0.150000      6.000000
  0.250000  0.250000  0.150000      6.000000
  0.350000  0.250000  0.150000     12.000000
[...]
 -0.350000  0.450000  0.250000     12.000000
 -0.250000  0.450000  0.250000     12.000000
 -0.450000 -0.450000  0.250000      6.000000
 -0.350000 -0.450000  0.250000     12.000000
 -0.350000 -0.350000  0.250000      6.000000
  0.350000  0.350000  0.350000      2.000000
  0.450000  0.350000  0.350000      6.000000
 -0.450000  0.350000  0.350000      6.000000
 -0.350000  0.350000  0.350000      6.000000
  0.450000  0.450000  0.350000      6.000000
 -0.450000  0.450000  0.350000     12.000000
 -0.350000  0.450000  0.350000     12.000000
 -0.450000 -0.450000  0.350000      6.000000
  0.450000  0.450000  0.450000      2.000000
 -0.450000  0.450000  0.450000      6.000000

 Following cartesian coordinates:
            Coordinates               Weight
  0.025000  0.025000  0.025000      2.000000
  0.175000 -0.025000 -0.025000      6.000000
  0.325000 -0.075000 -0.075000      6.000000
  0.475000 -0.125000 -0.125000      6.000000
  0.625000 -0.175000 -0.175000      6.000000
 -0.725000  0.275000  0.275000      6.000000
 -0.575000  0.225000  0.225000      6.000000
 -0.425000  0.175000  0.175000      6.000000
 -0.275000  0.125000  0.125000      6.000000
 -0.125000  0.075000  0.075000      6.000000
  0.125000  0.125000 -0.075000      6.000000
  0.275000  0.075000 -0.125000     12.000000
  0.425000  0.025000 -0.175000     12.000000
  0.575000 -0.025000 -0.225000     12.000000
 -0.775000  0.425000  0.225000     12.000000
 -0.625000  0.375000  0.175000     12.000000
 -0.475000  0.325000  0.125000     12.000000
 -0.325000  0.275000  0.075000     12.000000
 -0.175000  0.225000  0.025000     12.000000
  0.225000  0.225000 -0.175000      6.000000
  0.375000  0.175000 -0.225000     12.000000
  0.525000  0.125000 -0.275000     12.000000
 -0.825000  0.575000  0.175000     12.000000
 -0.675000  0.525000  0.125000     12.000000
 -0.525000  0.475000  0.075000     12.000000
 -0.375000  0.425000  0.025000     12.000000
 -0.225000  0.375000 -0.025000     12.000000
  0.325000  0.325000 -0.275000      6.000000
  0.475000  0.275000 -0.325000     12.000000
 -0.875000  0.725000  0.125000     12.000000
 -0.725000  0.675000  0.075000     12.000000
 -0.575000  0.625000  0.025000     12.000000
 -0.425000  0.575000 -0.025000     12.000000
 -0.275000  0.525000 -0.075000     12.000000
  0.425000  0.425000 -0.375000      6.000000
 -0.925000  0.875000  0.075000     12.000000
 -0.775000  0.825000  0.025000     12.000000
 -0.625000  0.775000 -0.025000     12.000000
 -0.475000  0.725000 -0.075000     12.000000
 -0.325000  0.675000 -0.125000     12.000000
 -0.475000 -0.475000  0.525000      6.000000
 -0.325000 -0.525000  0.475000     12.000000
 -0.175000 -0.575000  0.425000     12.000000
 -0.025000 -0.625000  0.375000     12.000000
 -0.375000 -0.375000  0.425000      6.000000
 -0.225000 -0.425000  0.375000     12.000000
 -0.075000 -0.475000  0.325000     12.000000
 -0.275000 -0.275000  0.325000      6.000000
 -0.125000 -0.325000  0.275000     12.000000
[...]
  -0.05000000  0.35000000  0.05000000       0.012
   0.45000000  0.45000000  0.05000000       0.006
  -0.45000000  0.45000000  0.05000000       0.012
  -0.35000000  0.45000000  0.05000000       0.012
  -0.25000000  0.45000000  0.05000000       0.012
  -0.15000000  0.45000000  0.05000000       0.012
  -0.05000000  0.45000000  0.05000000       0.012
  -0.45000000 -0.45000000  0.05000000       0.006
  -0.35000000 -0.45000000  0.05000000       0.012
  -0.25000000 -0.45000000  0.05000000       0.012
  -0.15000000 -0.45000000  0.05000000       0.012
  -0.35000000 -0.35000000  0.05000000       0.006
  -0.25000000 -0.35000000  0.05000000       0.012
  -0.15000000 -0.35000000  0.05000000       0.012
  -0.25000000 -0.25000000  0.05000000       0.006
  -0.15000000 -0.25000000  0.05000000       0.012
  -0.15000000 -0.15000000  0.05000000       0.006
   0.15000000  0.15000000  0.15000000       0.002
   0.25000000  0.15000000  0.15000000       0.006
   0.35000000  0.15000000  0.15000000       0.006
   0.45000000  0.15000000  0.15000000       0.006
  -0.45000000  0.15000000  0.15000000       0.006
  -0.35000000  0.15000000  0.15000000       0.006
  -0.25000000  0.15000000  0.15000000       0.006
  -0.15000000  0.15000000  0.15000000       0.006
   0.25000000  0.25000000  0.15000000       0.006
   0.35000000  0.25000000  0.15000000       0.012
[...]
  -0.35000000  0.45000000  0.25000000       0.012
  -0.25000000  0.45000000  0.25000000       0.012
  -0.45000000 -0.45000000  0.25000000       0.006
  -0.35000000 -0.45000000  0.25000000       0.012
  -0.35000000 -0.35000000  0.25000000       0.006
   0.35000000  0.35000000  0.35000000       0.002
   0.45000000  0.35000000  0.35000000       0.006
  -0.45000000  0.35000000  0.35000000       0.006
  -0.35000000  0.35000000  0.35000000       0.006
   0.45000000  0.45000000  0.35000000       0.006
  -0.45000000  0.45000000  0.35000000       0.012
  -0.35000000  0.45000000  0.35000000       0.012
  -0.45000000 -0.45000000  0.35000000       0.006
   0.45000000  0.45000000  0.45000000       0.002
  -0.45000000  0.45000000  0.45000000       0.006

 position of ions in fractional coordinates (direct lattice)
   0.00000000  0.00000000  0.00000000
   0.50000000  0.50000000  0.50000000
   0.25000000  0.25000000  0.25000000
   0.75000000  0.75000000  0.75000000

 position of ions in cartesian coordinates  (Angst):
   0.00000000  0.00000000  0.00000000
   4.17000000  4.17000000  4.17000000
   2.08500000  2.08500000  2.08500000
   6.25500000  6.25500000  6.25500000

 k-point  1 :   0.0500 0.0500 0.0500  plane waves:     666
 k-point  2 :   0.1500 0.0500 0.0500  plane waves:     663
 k-point  3 :   0.2500 0.0500 0.0500  plane waves:     655
 k-point  4 :   0.3500 0.0500 0.0500  plane waves:     657
 k-point  5 :   0.4500 0.0500 0.0500  plane waves:     656
 k-point  6 :  -0.4500 0.0500 0.0500  plane waves:     659
 k-point  7 :  -0.3500 0.0500 0.0500  plane waves:     660
 k-point  8 :  -0.2500 0.0500 0.0500  plane waves:     659
 k-point  9 :  -0.1500 0.0500 0.0500  plane waves:     657
 k-point 10 :  -0.0500 0.0500 0.0500  plane waves:     665
 k-point 11 :   0.1500 0.1500 0.0500  plane waves:     665
 k-point 12 :   0.2500 0.1500 0.0500  plane waves:     651
 k-point 13 :   0.3500 0.1500 0.0500  plane waves:     655
 k-point 14 :   0.4500 0.1500 0.0500  plane waves:     658
 k-point 15 :  -0.4500 0.1500 0.0500  plane waves:     661
 k-point 16 :  -0.3500 0.1500 0.0500  plane waves:     662
 k-point 17 :  -0.2500 0.1500 0.0500  plane waves:     664
 k-point 18 :  -0.1500 0.1500 0.0500  plane waves:     654
 k-point 19 :  -0.0500 0.1500 0.0500  plane waves:     659
 k-point 20 :   0.2500 0.2500 0.0500  plane waves:     648
 k-point 21 :   0.3500 0.2500 0.0500  plane waves:     659
 k-point 22 :   0.4500 0.2500 0.0500  plane waves:     665
 k-point 23 :  -0.4500 0.2500 0.0500  plane waves:     658
 k-point 24 :  -0.3500 0.2500 0.0500  plane waves:     663
 k-point 25 :  -0.2500 0.2500 0.0500  plane waves:     659
 k-point 26 :  -0.1500 0.2500 0.0500  plane waves:     654
 k-point 27 :  -0.0500 0.2500 0.0500  plane waves:     653
 k-point 28 :   0.3500 0.3500 0.0500  plane waves:     665
 k-point 29 :   0.4500 0.3500 0.0500  plane waves:     659
 k-point 30 :  -0.4500 0.3500 0.0500  plane waves:     663
 k-point 31 :  -0.3500 0.3500 0.0500  plane waves:     664
 k-point 32 :  -0.2500 0.3500 0.0500  plane waves:     659
 k-point 33 :  -0.1500 0.3500 0.0500  plane waves:     657
 k-point 34 :  -0.0500 0.3500 0.0500  plane waves:     657
 k-point 35 :   0.4500 0.4500 0.0500  plane waves:     656
 k-point 36 :  -0.4500 0.4500 0.0500  plane waves:     665
 k-point 37 :  -0.3500 0.4500 0.0500  plane waves:     661
 k-point 38 :  -0.2500 0.4500 0.0500  plane waves:     664
 k-point 39 :  -0.1500 0.4500 0.0500  plane waves:     664
 k-point 40 :  -0.0500 0.4500 0.0500  plane waves:     658
 k-point 41 :  -0.4500-0.4500 0.0500  plane waves:     670
 k-point 42 :  -0.3500-0.4500 0.0500  plane waves:     662
 k-point 43 :  -0.2500-0.4500 0.0500  plane waves:     661
 k-point 44 :  -0.1500-0.4500 0.0500  plane waves:     655
 k-point 45 :  -0.3500-0.3500 0.0500  plane waves:     659
 k-point 46 :  -0.2500-0.3500 0.0500  plane waves:     660
 k-point 47 :  -0.1500-0.3500 0.0500  plane waves:     659
 k-point 48 :  -0.2500-0.2500 0.0500  plane waves:     659
 k-point 49 :  -0.1500-0.2500 0.0500  plane waves:     655
 k-point 50 :  -0.1500-0.1500 0.0500  plane waves:     649
 k-point 51 :   0.1500 0.1500 0.1500  plane waves:     664
 k-point 52 :   0.2500 0.1500 0.1500  plane waves:     657
 k-point 53 :   0.3500 0.1500 0.1500  plane waves:     660
 k-point 54 :   0.4500 0.1500 0.1500  plane waves:     660
 k-point 55 :  -0.4500 0.1500 0.1500  plane waves:     665
 k-point 56 :  -0.3500 0.1500 0.1500  plane waves:     661
 k-point 57 :  -0.2500 0.1500 0.1500  plane waves:     659
 k-point 58 :  -0.1500 0.1500 0.1500  plane waves:     659
 k-point 59 :   0.2500 0.2500 0.1500  plane waves:     660
 k-point 60 :   0.3500 0.2500 0.1500  plane waves:     653
[...]
 k-point 85 :   0.4500 0.2500 0.2500  plane waves:     658
 k-point 86 :  -0.4500 0.2500 0.2500  plane waves:     656
 k-point 87 :  -0.3500 0.2500 0.2500  plane waves:     659
 k-point 88 :  -0.2500 0.2500 0.2500  plane waves:     661
 k-point 89 :   0.3500 0.3500 0.2500  plane waves:     655
 k-point 90 :   0.4500 0.3500 0.2500  plane waves:     654
 k-point 91 :  -0.4500 0.3500 0.2500  plane waves:     651
 k-point 92 :  -0.3500 0.3500 0.2500  plane waves:     657
 k-point 93 :  -0.2500 0.3500 0.2500  plane waves:     659
 k-point 94 :   0.4500 0.4500 0.2500  plane waves:     652
 k-point 95 :  -0.4500 0.4500 0.2500  plane waves:     656
 k-point 96 :  -0.3500 0.4500 0.2500  plane waves:     654
 k-point 97 :  -0.2500 0.4500 0.2500  plane waves:     658
 k-point 98 :  -0.4500-0.4500 0.2500  plane waves:     657
 k-point 99 :  -0.3500-0.4500 0.2500  plane waves:     657
 k-point ** :  -0.3500-0.3500 0.2500  plane waves:     658
 k-point ** :   0.3500 0.3500 0.3500  plane waves:     658
 k-point ** :   0.4500 0.3500 0.3500  plane waves:     647
 k-point ** :  -0.4500 0.3500 0.3500  plane waves:     656
 k-point ** :  -0.3500 0.3500 0.3500  plane waves:     652
 k-point ** :   0.4500 0.4500 0.3500  plane waves:     653
 k-point ** :  -0.4500 0.4500 0.3500  plane waves:     653
 k-point ** :  -0.3500 0.4500 0.3500  plane waves:     656
 k-point ** :  -0.4500-0.4500 0.3500  plane waves:     650
 k-point ** :   0.4500 0.4500 0.4500  plane waves:     649
 k-point ** :  -0.4500 0.4500 0.4500  plane waves:     655

 maximum and minimum number of plane-waves per node :       670      647

 maximum number of plane-waves:       670
 maximum index in each direction:
   IXMAX=    8   IYMAX=    8   IZMAX=    8
   IXMIN=   -8   IYMIN=   -8   IZMIN=   -8

 serial   3D FFT for wavefunctions
 parallel 3D FFT for charge:
    minimum data exchange during FFTs selected (reduces bandwidth)

 initial charge density was supplied:
 number of electron      32.0000048 magnetization       0.0000000
 keeping initial charge density in first step

 Maximum index for augmentation-charges        19063 (set IRDMAX)

 First call to EWALD:  gamma=   0.536
 Maximum number of real-space cells 3x 3x 3
 Maximum number of reciprocal cells 4x 4x 4

--------------------------------------- Iteration      1(   1)  ---------------------------------------

 BZINTS: Fermi energy: 16.299961; 32.000000 electrons
         Band energy: 178.998031;  BLOECHL correction: -0.411311

 eigenvalue-minimisations  :  8976
 total energy-change (2. order) : 0.2094372E+03  (-0.1455395E+04)
 number of electron      32.0000048 magnetization       0.0000000
 augmentation part       32.0000048 magnetization       0.0000000

 Free energy of the ion-electron system (eV)
  alpha Z        PSCENC =       217.71629331
  Ewald energy   TEWEN  =     -2604.77031634
  -Hartree energ DENC   =      -632.55112854
  -exchange      EXHF   =         0.00000000
  -V(xc)+E(xc)   XCENC  =       119.27466708
  PAW double counting   =      2354.03358362    -2448.00643139
  entropy T*S    EENTRO =         0.00000000
  eigenvalues    EBANDS =       178.99803078
  atomic energy  EATOM  =      3024.74254395
  Solvation  Ediel_sol  =         0.00000000
  free energy    TOTEN  =       209.43724247 eV

  energy without entropy =      209.43724247  energy(sigma->0) =      209.43724247

[...]

 eigenvalue-minimisations  :  9248
 total energy-change (2. order) :-0.2050089E+03  (-0.1957309E+03)
 number of electron      32.0000048 magnetization       0.0000000
 augmentation part       32.0000048 magnetization       0.0000000

[...]

--------------------------------------- Iteration      1(   6)  ---------------------------------------

[...]

 eigenvalue-minimisations  :  9620
 total energy-change (2. order) :-0.9229421E-04  (-0.9228873E-04)
 number of electron      32.0000048 magnetization       0.0000000
 augmentation part       32.0000048 magnetization       0.0000000

 Free energy of the ion-electron system (eV)
  alpha Z        PSCENC =       217.71629331
  Ewald energy   TEWEN  =     -2604.77031634
  -Hartree energ DENC   =      -632.55112854
  -exchange      EXHF   =         0.00000000
  -V(xc)+E(xc)   XCENC  =       119.27466708
  PAW double counting   =      2354.03358362    -2448.00643139
  entropy T*S    EENTRO =         0.00000000
  eigenvalues    EBANDS =       -45.91954175
  atomic energy  EATOM  =      3024.74254395
  Solvation  Ediel_sol  =         0.00000000
  free energy    TOTEN  =       -15.48033005 eV

  energy without entropy =      -15.48033005  energy(sigma->0) =      -15.48033005

 average (electrostatic) potential at core
  the test charge radii are     0.9791  0.7215
  (the norm of the test charge is              1.0000)
       1 -43.1214       2 -43.1214       3 -71.0731       4 -71.0731

 E-fermi :   3.7477     XC(G=0): -12.7202     alpha+bet :-11.2748

 spin component 1

 k-point     1 :       0.0500    0.0500    0.0500
  band No.  band energies     occupation
      1     -14.6847      1.00000
      2     -13.2401      1.00000
      3      -3.4583      1.00000
      4      -2.4882      1.00000
      5      -2.4882      1.00000
      6      -1.3470      1.00000
      7      -1.3470      1.00000
      8      -0.5740      1.00000
      9       1.2789      1.00000
     10       1.2789      1.00000
     11       2.6200      1.00000
     12       2.6200      1.00000
     13       2.6762      1.00000
     14       2.7796      1.00000
     15       2.7796      1.00000
     16       3.0003      1.00000
     17       5.6599      0.00000
     18       5.6599      0.00000
     19       7.1128      0.00000
     20      10.9889      0.00000

[...]

 spin component 2

[...]

 k-point   110 :      -0.4500    0.4500    0.4500
  band No.  band energies     occupation
      1     -14.0021      1.00000
      2     -13.9250      1.00000
      3      -2.5608      1.00000
      4      -2.3405      1.00000
      5      -2.3213      1.00000
      6      -1.4227      1.00000
      7      -1.3573      1.00000
      8      -0.4503      1.00000
      9      -0.0061      1.00000
     10       0.7794      1.00000
     11       1.5557      1.00000
     12       2.3677      1.00000
     13       2.4739      1.00000
     14       2.8195      1.00000
     15       3.4995      1.00000
     16       3.5404      1.00000
     17       5.0241      0.00000
     18       5.4005      0.00000
     19      10.1708      0.00000
     20      10.3439      0.00000

 soft charge-density along one line, spin component           1
         0         1         2         3         4         5         6         7         8         9
 total charge-density along one line

 soft charge-density along one line, spin component           2
         0         1         2         3         4         5         6         7         8         9
 total charge-density along one line

------------------------ aborting loop because EDIFF is reached ----------------------------------------

 total charge

# of ion       s       p       d       tot
    1        0.340   0.411   8.656   9.408
    2        0.340   0.411   8.656   9.408
    3        1.573   3.158   0.000   4.731
    4        1.573   3.158   0.000   4.731
tot          3.825   7.139  17.313  28.278

 magnetization (x)

[...]

  FORCE on cell =-STRESS in cart. coord.  units (eV):
  Direction    XX          YY          ZZ          XY          YZ          ZX
  Alpha Z   217.71629   217.71629   217.71629
  Ewald    -868.25805  -868.25805  -868.25805     0.00000    -0.00000    -0.00000
  Hartree   221.08934   221.08934   221.08934    -0.14018    -0.14018    -0.14018
  E(xc)    -171.12268  -171.12268  -171.12268     0.00856     0.00856     0.00856
  Local     195.49906   195.49906   195.49906     0.33882     0.33882     0.33882
  n-local   -95.93863   -98.25396   -96.47574     0.22330    -0.08949     0.17236
  augment   123.38895   123.38895   123.38895    -0.08011    -0.08011    -0.08011
  Kinetic   401.17937   404.47354   402.13204    -0.62549     0.39647    -0.28098
  Fock        0.00000     0.00000     0.00000     0.00000     0.00000     0.00000
  Total      24.01845    24.01845    24.01845    -0.02687    -0.02687    -0.02687
  in kB    1061.39607  1061.39607  1061.39607    -1.18751    -1.18751    -1.18751

 VOLUME and BASIS-vectors are now :
  energy-cutoff  :      400.00
  volume of cell :       36.26
      direct lattice vectors                 reciprocal lattice vectors
     4.170000000  2.085000000  2.085000000     0.359712230 -0.119904077 -0.119904077
     2.085000000  4.170000000  2.085000000    -0.119904077  0.359712230 -0.119904077
     2.085000000  2.085000000  4.170000000    -0.119904077 -0.119904077  0.359712230

  length of vectors
     5.107186114  5.107186114  5.107186114     0.397676833  0.397676833  0.397676833

 FORCES acting on ions
    electron-ion (+dipol)            ewald-force                    non-local-force                 convergence-correction
   -.141E-12 -.188E-14 -.136E-12   0.000E+00 -.284E-13 -.568E-13   -.397E-21 -.318E-21 0.000E+00   0.912E-12 -.654E-12 -.340E-12
   0.859E-12 0.210E-11 0.224E-11   0.568E-13 0.284E-13 0.000E+00   0.106E-21 0.318E-21 0.000E+00   -.600E-12 -.552E-12 -.598E-12
   -.490E-12 0.651E-12 0.647E-12   -.426E-13 -.131E-13 0.169E-13   -.116E-20 -.741E-21 -.635E-21   0.262E-12 0.271E-12 0.217E-12
   0.245E-11 -.110E-11 -.109E-11   -.152E-13 0.134E-13 0.426E-13   0.424E-21 -.106E-20 -.847E-21   -.407E-12 -.932E-13 -.548E-13
   0.268E-11 0.165E-11 0.166E-11   -.869E-15 0.280E-15 0.262E-14   -.103E-20 -.180E-20 -.148E-20   0.167E-12 -.103E-11 -.776E-12

 POSITION                                       TOTAL-FORCE (eV/Angst)
      0.00000      0.00000      0.00000        -0.000000     -0.000000      0.000000
      4.17000      4.17000      4.17000         0.000000      0.000000      0.000000
      2.08500      2.08500      2.08500        -0.000000      0.000000     -0.000000
      6.25500      6.25500      6.25500         0.000000      0.000000     -0.000000
    total drift:                                0.000000      0.000000      0.000000

  FREE ENERGIE OF THE ION-ELECTRON SYSTEM (eV)
  free  energy   TOTEN  =       -15.48033005 eV

  energy  without entropy=      -15.48033005  energy(sigma->0) =      -15.48033005

 total charge

[...]

 magnetization (x)

# of ion       s       p       d       tot
    1       -0.007  -0.016   1.257   1.234
    2        0.007   0.016  -1.257  -1.234
    3       -0.000   0.000   0.000  -0.000
    4       -0.000  -0.000   0.000  -0.000
tot         -0.000  -0.000   0.000  -0.000

 BZINTS: Fermi energy:  3.747681; 32.000000 electrons
         Band energy: -45.919542;  BLOECHL correction:  0.000000