 vasp.5.3.5 31Mar14 (build Dec 14 2018 19:18:10) complex

 INCAR:
 POTCAR:    PAW B
 POTCAR:    PAW N
 POTCAR:    PAW B
   VRHFIN =B: s2p1

   TITEL  = PAW B
   POMASS =   10.811; ZVAL   =    3.000    mass and valenz
   ENMAX  =  318.762; ENMIN  =  239.072 eV
   QCUT   =   -4.840; QGAM   =    9.681    optimization parameters

   Description
     l     E      TYP  RCUT    TYP  RCUT
     0   .000     23  1.500
     0   .000     23  1.500
     1   .000     23  1.700
     1   .000     23  1.700
     2   .000      7  1.700

 POTCAR:    PAW N
   VRHFIN =N: s2p3

   TITEL  = PAW N
   POMASS =   14.001; ZVAL   =    5.000    mass and valenz
   ENMAX  =  400.000; ENMIN  =  300.000 eV
   QCUT   =   -5.561; QGAM   =   11.121    optimization parameters

   Description
     l     E      TYP  RCUT    TYP  RCUT
     0   .000     23  1.200
     0   .000     23  1.200
     1   .000     23  1.500
     1   .700     23  1.500
     2   .000      7  1.500

  PAW B                                 :
  PAW N                                 :

 POSCAR: BN hexagonal
  positions in direct lattice
  velocities in cartesian coordinates
 exchange correlation table for  LEXCH =        2
   RHO(1)=    0.500       N(1)  =     2000
   RHO(2)=  100.500       N(2)  =     4000

 ion  position               nearest neighbor table
   1  0.000  0.000  0.000-   2 1.44   2 1.44   2 1.44
   2  0.333  0.667  0.000-   1 1.44   1 1.44   1 1.44
   3  0.000  0.000  0.500-   4 1.44   4 1.44   4 1.44
   4  0.333  0.667  0.500-   3 1.44   3 1.44   3 1.44

  LATTYP: Found a hexagonal cell.
 ALAT       =     2.4999999983
 C/A-ratio  =     2.6720000018

  Lattice vectors:

 A1 = (   2.5000000000,   0.0000000000,   0.0000000000)
 A2 = (  -1.2500000000,   2.1650635075,   0.0000000000)
 A3 = (   0.0000000000,   0.0000000000,   6.6800000000)

Analysis of symmetry for initial positions (statically):
 Subroutine PRICEL returns:
 Original cell was already a primitive cell.

 Routine SETGRP: Setting up the symmetry group for a
 hexagonal supercell.

 Subroutine GETGRP returns: Found 24 space group operations
 (whereof 12 operations were pure point group operations)
 out of a pool of 24 trial point group operations.

The static configuration has the point symmetry D_3h.
 The point group associated with its full space group is D_6h.

Analysis of symmetry for dynamics (positions and initial velocities):
 Subroutine PRICEL returns:
 Original cell was already a primitive cell.

 Routine SETGRP: Setting up the symmetry group for a
 hexagonal supercell.

 Subroutine GETGRP returns: Found 24 space group operations
 (whereof 12 operations were pure point group operations)
 out of a pool of 24 trial point group operations.

The dynamic configuration has the point symmetry D_3h.
 The point group associated with its full space group is D_6h.

 KPOINTS: 16X16x6

Automatic generation of k-mesh.
Space group operators:
 irot       det(A)        alpha          n_x          n_y          n_z        tau_x        tau_y        tau_z
    1     1.000000     0.000000     1.000000     0.000000     0.000000     0.000000     0.000000     0.000000
    2    -1.000000    60.000000     0.000000     0.000000    -1.000000     0.000000     0.000000     0.000000
    3     1.000000   120.000000     0.000000     0.000000    -1.000000     0.000000     0.000000     0.000000
    4    -1.000000   180.000000     0.000000     0.000000     1.000000     0.000000     0.000000     0.000000
    5     1.000000   120.000000     0.000000     0.000000     1.000000     0.000000     0.000000     0.000000
    6    -1.000000    60.000000     0.000000     0.000000     1.000000     0.000000     0.000000     0.000000
    7    -1.000000   179.999999     1.000000     0.000000     0.000000     0.000000     0.000000     0.000000
    8     1.000000   180.000000     0.866025    -0.500000     0.000000     0.000000     0.000000     0.000000
    9    -1.000000   180.000000     0.500000    -0.866025     0.000000     0.000000     0.000000     0.000000
   10     1.000000   180.000000     0.000000     1.000000     0.000000     0.000000     0.000000     0.000000
   11    -1.000000   180.000000    -0.500000    -0.866025     0.000000     0.000000     0.000000     0.000000
   12     1.000000   180.000000     0.866025     0.500000     0.000000     0.000000     0.000000     0.000000
   13    -1.000000     0.000000     1.000000     0.000000     0.000000     0.333333     0.666667     0.000000
   14     1.000000    60.000000     0.000000     0.000000    -1.000000     0.333333     0.666667     0.000000
   15    -1.000000   120.000000     0.000000     0.000000    -1.000000     0.333333     0.666667     0.000000
   16     1.000000   180.000000     0.000000     0.000000     1.000000     0.333333     0.666667     0.000000
   17    -1.000000   120.000000     0.000000     0.000000     1.000000     0.333333     0.666667     0.000000
   18     1.000000    60.000000     0.000000     0.000000     1.000000     0.333333     0.666667     0.000000
   19     1.000000   179.999999     1.000000     0.000000     0.000000     0.333333     0.666667     0.000000
   20    -1.000000   180.000000     0.866025    -0.500000     0.000000     0.333333     0.666667     0.000000
   21     1.000000   180.000000     0.500000    -0.866025     0.000000     0.333333     0.666667     0.000000
   22    -1.000000   180.000000     0.000000     1.000000     0.000000     0.333333     0.666667     0.000000
   23     1.000000   180.000000    -0.500000    -0.866025     0.000000     0.333333     0.666667     0.000000
   24    -1.000000   180.000000     0.866025     0.500000     0.000000     0.333333     0.666667     0.000000

 Subroutine IBZKPT returns following result:

 Found    120 irreducible k-points:

 Following reciprocal coordinates:
            Coordinates               Weight
  0.000000  0.000000  0.000000      1.000000
  0.062500 -0.000000  0.000000      6.000000
  0.125000 -0.000000  0.000000      6.000000
  0.187500 -0.000000  0.000000      6.000000
  0.250000 -0.000000  0.000000      6.000000
  0.312500 -0.000000  0.000000      6.000000
  0.375000 -0.000000  0.000000      6.000000
  0.437500 -0.000000  0.000000      6.000000
  0.500000 -0.000000  0.000000      3.000000
  0.062500  0.062500  0.000000      6.000000
  0.125000  0.062500  0.000000     12.000000
  0.187500  0.062500  0.000000     12.000000
  0.250000  0.062500  0.000000     12.000000
  0.312500  0.062500  0.000000     12.000000
  0.375000  0.062500  0.000000     12.000000
  0.437500  0.062500  0.000000     12.000000
  0.125000  0.125000  0.000000      6.000000
  0.187500  0.125000  0.000000     12.000000
  0.250000  0.125000  0.000000     12.000000
  0.312500  0.125000  0.000000     12.000000
  0.375000  0.125000  0.000000     12.000000
  0.437500  0.125000  0.000000      6.000000
  0.187500  0.187500  0.000000      6.000000
  0.250000  0.187500  0.000000     12.000000
  0.312500  0.187500  0.000000     12.000000
  0.375000  0.187500  0.000000     12.000000
  0.250000  0.250000  0.000000      6.000000
  0.312500  0.250000  0.000000     12.000000
  0.375000  0.250000  0.000000      6.000000
  0.312500  0.312500  0.000000      6.000000
  0.000000  0.000000  0.166667      2.000000
  0.062500 -0.000000  0.166667     12.000000
  0.125000 -0.000000  0.166667     12.000000
  0.187500 -0.000000  0.166667     12.000000
  0.250000 -0.000000  0.166667     12.000000
  0.312500 -0.000000  0.166667     12.000000
  0.375000 -0.000000  0.166667     12.000000
  0.437500 -0.000000  0.166667     12.000000
  0.500000 -0.000000  0.166667      6.000000
  0.062500  0.062500  0.166667     12.000000
  0.125000  0.062500  0.166667     24.000000
  0.187500  0.062500  0.166667     24.000000
  0.250000  0.062500  0.166667     24.000000
  0.312500  0.062500  0.166667     24.000000
  0.375000  0.062500  0.166667     24.000000
  0.437500  0.062500  0.166667     24.000000
  0.125000  0.125000  0.166667     12.000000
  0.187500  0.125000  0.166667     24.000000
  0.250000  0.125000  0.166667     24.000000
  0.312500  0.125000  0.166667     24.000000
  0.375000  0.125000  0.166667     24.000000
  0.437500  0.125000  0.166667     12.000000
  0.187500  0.187500  0.166667     12.000000
  0.250000  0.187500  0.166667     24.000000
  0.312500  0.187500  0.166667     24.000000
  0.375000  0.187500  0.166667     24.000000
  0.250000  0.250000  0.166667     12.000000
  0.312500  0.250000  0.166667     24.000000
  0.375000  0.250000  0.166667     12.000000
  0.312500  0.312500  0.166667     12.000000
[...]
  0.437500  0.062500  0.500000     12.000000
  0.125000  0.125000  0.500000      6.000000
  0.187500  0.125000  0.500000     12.000000
  0.250000  0.125000  0.500000     12.000000
  0.312500  0.125000  0.500000     12.000000
  0.375000  0.125000  0.500000     12.000000
  0.437500  0.125000  0.500000      6.000000
  0.187500  0.187500  0.500000      6.000000
  0.250000  0.187500  0.500000     12.000000
  0.312500  0.187500  0.500000     12.000000
  0.375000  0.187500  0.500000     12.000000
  0.250000  0.250000  0.500000      6.000000
  0.312500  0.250000  0.500000     12.000000
  0.375000  0.250000  0.500000      6.000000
  0.312500  0.312500  0.500000      6.000000

 Following cartesian coordinates:
            Coordinates               Weight
  0.000000  0.000000  0.000000      1.000000
  0.062500  0.036084  0.000000      6.000000
  0.125000  0.072169  0.000000      6.000000
  0.187500  0.108253  0.000000      6.000000
  0.250000  0.144338  0.000000      6.000000
  0.312500  0.180422  0.000000      6.000000
  0.375000  0.216506  0.000000      6.000000
  0.437500  0.252591  0.000000      6.000000
  0.500000  0.288675  0.000000      3.000000
  0.062500  0.108253  0.000000      6.000000
  0.125000  0.144338  0.000000     12.000000
  0.187500  0.180422  0.000000     12.000000
  0.250000  0.216506  0.000000     12.000000
  0.312500  0.252591  0.000000     12.000000
  0.375000  0.288675  0.000000     12.000000
  0.437500  0.324760  0.000000     12.000000
  0.125000  0.216506  0.000000      6.000000
  0.187500  0.252591  0.000000     12.000000
  0.250000  0.288675  0.000000     12.000000
  0.312500  0.324760  0.000000     12.000000
  0.375000  0.360844  0.000000     12.000000
  0.437500  0.396928  0.000000      6.000000
  0.187500  0.324760  0.000000      6.000000
  0.250000  0.360844  0.000000     12.000000
  0.312500  0.396928  0.000000     12.000000
  0.375000  0.433013  0.000000     12.000000
  0.250000  0.433013  0.000000      6.000000
  0.312500  0.469097  0.000000     12.000000
  0.375000  0.505181  0.000000      6.000000
  0.312500  0.541266  0.000000      6.000000
  0.000000  0.000000  0.062375      2.000000
  0.062500  0.036084  0.062375     12.000000
  0.125000  0.072169  0.062375     12.000000
  0.187500  0.108253  0.062375     12.000000
  0.250000  0.144338  0.062375     12.000000
  0.312500  0.180422  0.062375     12.000000
  0.375000  0.216506  0.062375     12.000000
  0.437500  0.252591  0.062375     12.000000
  0.500000  0.288675  0.062375      6.000000
  0.062500  0.108253  0.062375     12.000000
  0.125000  0.144338  0.062375     24.000000
  0.187500  0.180422  0.062375     24.000000
[...]
  Ewald     143.32322   143.32322  -706.56447     0.00000     0.00000    -0.00000
  Hartree   238.96586   238.96586  -202.30722    -0.00000    -0.00000    -0.00000
  E(xc)     -59.78989   -59.78989   -59.78989     0.00000     0.00000     0.00000
  Local    -578.27148  -578.27121   646.77410     0.00023    -0.00000    -0.00000
  n-local   -15.31964   -15.29489   -22.70189    -1.40531     0.01819     0.01744
  augment     2.76833     2.76826     5.33276    -0.00005     0.00000     0.00000
  Kinetic   241.31993   249.83203   301.71595    -3.94458    -0.27194    -0.25448
  Fock        0.00000     0.00000     0.00000     0.00000     0.00000     0.00000
  Total      13.22686    13.22686    -1.57867     0.00000    -0.00000     0.00000
  in kB     586.11164   586.11164   -69.95441     0.00000    -0.00000     0.00000

 VOLUME and BASIS-vectors are now :
  energy-cutoff  :      400.00
  volume of cell :       36.16
      direct lattice vectors                 reciprocal lattice vectors
     2.500000000  0.000000000  0.000000000     0.400000000  0.230940108  0.000000000
    -1.250000000  2.165063507  0.000000000     0.000000000  0.461880216  0.000000000
     0.000000000  0.000000000  6.680000000     0.000000000  0.000000000  0.149700599

  length of vectors
     2.500000000  2.499999998  6.680000000     0.461880215  0.461880216  0.149700599

 FORCES acting on ions
    electron-ion (+dipol)            ewald-force                    non-local-force                 convergence-correction
   -.343E-05 0.201E-05 -.273E-14   0.342E-11 -.109E-06 -.163E-13   0.347E-17 -.867E-17 0.000E+00   -.609E-07 0.351E-07 -.303E-13
   0.343E-05 -.201E-05 -.125E-14   -.342E-11 0.109E-06 -.163E-13   -.260E-17 0.867E-17 0.000E+00   0.609E-07 -.351E-07 -.310E-13
   0.253E-03 -.146E-03 0.177E-12   0.948E-11 -.302E-06 0.163E-13   0.153E-15 -.416E-16 0.000E+00   -.288E-06 0.167E-06 0.362E-13
   -.253E-03 0.146E-03 0.269E-12   -.949E-11 0.302E-06 0.163E-13   -.416E-16 0.416E-16 0.000E+00   0.288E-06 -.167E-06 0.422E-13
   0.477E-11 0.813E-11 0.441E-12   -.220E-14 0.539E-14 0.000E+00   0.112E-15 0.000E+00 0.000E+00   -.212E-13 -.231E-13 0.172E-13

 POSITION                                       TOTAL-FORCE (eV/Angst)
      0.00000      0.00000      0.00000        -0.000000      0.000000      0.000000
      0.00000      1.44338      0.00000         0.000000     -0.000000      0.000000
      0.00000      0.00000      3.34000         0.000000     -0.000000      0.000000
      0.00000      1.44338      3.34000        -0.000000      0.000000      0.000000
    total drift:                                0.000000      0.000000      0.000000

  FREE ENERGIE OF THE ION-ELECTRON SYSTEM (eV)
  free  energy   TOTEN  =       -23.04907878 eV

  energy  without entropy=      -23.04907878  energy(sigma->0) =      -23.04907878

 writing wavefunctions

 plasma frequency squared (from intraband transitions)
     162.994       0.000       0.000
       0.000     162.994       0.000
       0.000      -0.000       0.515

 electrical conductivity sigma (Mega S m-1) (frequency dependency in vasprun.xml)
       0.333       0.000       0.000
       0.000       0.333       0.000
       0.000       0.000       0.001

 plasma frequency squared (from intraband transitions)

 plasma frequency squared (from interband transitions, int dw w eps(2)(w)
     116.169       0.000      -0.000
       0.000     116.169       0.000
      -0.000       0.000      59.681
 plasma frequency squared  (valence only):     610.177

  frequency dependent IMAGINARY DIELECTRIC FUNCTION (independent particle, no local field effects)
     E(ev)      X         Y         Z        XY        YZ        ZX
    0.000000    0.000000    0.000000    0.000000    0.000000    0.000000    0.000000
    0.042812    9.759099    9.759099    0.088910    0.000000    0.000000    0.000000
    0.085624   20.266000   20.266000    0.193764    0.000000    0.000000    0.000000
    0.128437   32.133165   32.133165    0.334225    0.000000    0.000000    0.000000
    0.171249   45.223556   45.223556    0.530107    0.000000    0.000000    0.000000
    0.214061   57.190585   57.190585    0.777222    0.000000    0.000000    0.000000
    0.256873   64.117518   64.117518    1.028252    0.000000    0.000000    0.000000
    0.299685   64.432596   64.432596    1.212539    0.000000    0.000000    0.000000
    0.342498   59.329032   59.329032    1.272033    0.000000    0.000000    0.000000
    0.385310   51.537455   51.537455    1.224539    0.000000    0.000000   -0.000000
    0.428122   43.521683   43.521683    1.132033    0.000000    0.000000   -0.000000
    0.470934   36.321680   36.321680    1.037326    0.000000    0.000000    0.000000
    0.513746   30.233267   30.233267    0.960537    0.000000    0.000000    0.000000
    0.556559   25.576714   25.576714    0.911785    0.000000    0.000000    0.000000
    0.599371   22.295327   22.295327    0.891860    0.000000    0.000000    0.000000
    0.642183   19.996493   19.996493    0.893330    0.000000    0.000000    0.000000
    0.684995   18.307404   18.307403    0.906028    0.000000    0.000000    0.000000
    0.727807   16.971983   16.971983    0.920613    0.000000    0.000000    0.000000
    0.770620   15.851050   15.851050    0.930415    0.000000    0.000000   -0.000000
    0.813432   14.905852   14.905852    0.932160    0.000000    0.000000   -0.000000
    0.856244   14.113631   14.113631    0.925367    0.000000    0.000000   -0.000000
    0.899056   13.394593   13.394593    0.911415    0.000000    0.000000   -0.000000
    0.941868   12.651877   12.651877    0.892384    0.000000    0.000000   -0.000000
    0.984681   11.814650   11.814650    0.870018    0.000000   -0.000000   -0.000000
    1.027493   10.847002   10.847002    0.846262    0.000000   -0.000000   -0.000000
    1.070305    9.801203    9.801203    0.824569    0.000000   -0.000000   -0.000000
    1.113117    8.833191    8.833191    0.806633    0.000000   -0.000000   -0.000000
    1.155929    8.016488    8.016488    0.790586    0.000000   -0.000000    0.000000
    1.198742    7.328728    7.328728    0.774998   -0.000000   -0.000000    0.000000
    1.241554    6.729131    6.729131    0.759091   -0.000000   -0.000000    0.000000
    1.284366    6.185978    6.185978    0.742475   -0.000000   -0.000000    0.000000
    1.327178    5.683030    5.683030    0.725853   -0.000000   -0.000000   -0.000000
    1.369991    5.229995    5.229995    0.710871   -0.000000   -0.000000   -0.000000
    1.412803    4.856815    4.856815    0.698623    0.000000   -0.000000   -0.000000
    1.455615    4.575262    4.575262    0.685804    0.000000   -0.000000    0.000000
    1.498427    4.378274    4.378274    0.666079    0.000000   -0.000000    0.000000
    1.541239    4.255006    4.255006    0.639543    0.000000   -0.000000    0.000000
    1.584052    4.194837    4.194837    0.611213    0.000000   -0.000000    0.000000
    1.626864    4.189074    4.189074    0.586348    0.000000   -0.000000    0.000000
    1.669676    4.230743    4.230743    0.567976    0.000000   -0.000000    0.000000
    1.712488    4.312472    4.312472    0.556601    0.000000    0.000000    0.000000
    1.755300    4.425452    4.425452    0.552330    0.000000    0.000000    0.000000
    1.798113    4.560065    4.560065    0.554404    0.000000    0.000000    0.000000
    1.840925    4.710413    4.710413    0.560568    0.000000    0.000000   -0.000000
    1.883737    4.879727    4.879727    0.569974    0.000000    0.000000   -0.000000
    1.926549    5.077482    5.077482    0.583394    0.000000    0.000000   -0.000000
    1.969361    5.313211    5.313211    0.599791    0.000000    0.000000   -0.000000
    2.012174    5.595803    5.595803    0.614128    0.000000    0.000000   -0.000000
    2.054986    5.941582    5.941582    0.620567    0.000000    0.000000   -0.000000
    2.097798    6.379947    6.379947    0.617035    0.000000    0.000000   -0.000000
    2.140610    6.957630    6.957630    0.603937    0.000000   -0.000000    0.000000
    2.183422    7.714089    7.714088    0.587356    0.000000   -0.000000    0.000000
    2.226235    8.545218    8.545218    0.575542    0.000000   -0.000000    0.000000
    2.269047    9.130256    9.130256    0.567187    0.000000   -0.000000    0.000000
    2.311859    9.236733    9.236733    0.551516    0.000000   -0.000000    0.000000
    2.354671    8.910613    8.910613    0.526527    0.000000   -0.000000   -0.000000
    2.397483    8.307985    8.307985    0.501470    0.000000   -0.000000   -0.000000
    2.440296    7.554598    7.554598    0.481937    0.000000   -0.000000   -0.000000
    2.483108    6.732075    6.732075    0.467686    0.000000   -0.000000   -0.000000
    2.525920    5.915201    5.915201    0.456727    0.000000   -0.000000   -0.000000
[...]
   42.170020    0.000386    0.000386    0.000180    0.000000    0.000000   -0.000000
   42.212833    0.000385    0.000385    0.000179    0.000000    0.000000   -0.000000
   42.255645    0.000384    0.000384    0.000179    0.000000    0.000000   -0.000000
   42.298457    0.000382    0.000382    0.000178    0.000000    0.000000   -0.000000
   42.341269    0.000381    0.000381    0.000178    0.000000    0.000000   -0.000000
   42.384081    0.000379    0.000379    0.000177    0.000000    0.000000   -0.000000
   42.426894    0.000378    0.000378    0.000176    0.000000    0.000000   -0.000000
   42.469706    0.000377    0.000377    0.000176    0.000000    0.000000   -0.000000
   42.512518    0.000375    0.000375    0.000175    0.000000    0.000000   -0.000000
   42.555330    0.000374    0.000374    0.000175    0.000000    0.000000   -0.000000
   42.598142    0.000373    0.000373    0.000174    0.000000    0.000000   -0.000000
   42.640955    0.000372    0.000372    0.000174    0.000000    0.000000   -0.000000
   42.683767    0.000370    0.000370    0.000173    0.000000    0.000000   -0.000000
   42.726579    0.000369    0.000369    0.000172    0.000000    0.000000   -0.000000
   42.769391    0.000368    0.000368    0.000172    0.000000    0.000000   -0.000000

  frequency dependent      REAL DIELECTRIC FUNCTION (independent particle, no local field effects)
     E(ev)      X         Y         Z        XY        YZ        ZX
    0.000000   77.658509   77.658509    3.587767    0.000000    0.000000    0.000000
    0.042812   77.431032   77.431032    3.598311    0.000000    0.000000    0.000000
    0.085624   76.485082   76.485082    3.628261    0.000000    0.000000    0.000000
    0.128437   73.905523   73.905523    3.669037    0.000000    0.000000    0.000000
    0.171249   67.857960   67.857960    3.694139    0.000000    0.000000    0.000000
    0.214061   56.419310   56.419310    3.654666    0.000000    0.000000    0.000000
    0.256873   40.639036   40.639036    3.512158    0.000000    0.000000    0.000000
    0.299685   24.262114   24.262114    3.268645    0.000000    0.000000   -0.000000
    0.342498   10.666790   10.666790    2.987679    0.000000   -0.000000   -0.000000
    0.385310    1.466846    1.466846    2.754647    0.000000   -0.000000   -0.000000
    0.428122   -3.829479   -3.829479    2.599805   -0.000000   -0.000000   -0.000000
    0.470934   -6.462446   -6.462446    2.510147   -0.000000   -0.000000   -0.000000
    0.513746   -7.208846   -7.208846    2.466453   -0.000000   -0.000000   -0.000000
    0.556559   -6.740948   -6.740948    2.449742   -0.000000   -0.000000   -0.000000
    0.599371   -5.857374   -5.857374    2.441152   -0.000000   -0.000000   -0.000000
    0.642183   -5.031482   -5.031482    2.427048   -0.000000   -0.000000   -0.000000
    0.684995   -4.412049   -4.412050    2.401134   -0.000000   -0.000000   -0.000000
    0.727807   -3.993845   -3.993845    2.362803   -0.000000   -0.000000   -0.000000
    0.770620   -3.710180   -3.710180    2.315271   -0.000000   -0.000000   -0.000000
    0.813432   -3.514580   -3.514580    2.263276   -0.000000   -0.000000   -0.000000
    0.856244   -3.430765   -3.430765    2.211319   -0.000000   -0.000000   -0.000000
    0.899056   -3.490418   -3.490418    2.162707   -0.000000   -0.000000   -0.000000
    0.941868   -3.669212   -3.669212    2.119199   -0.000000   -0.000000   -0.000000
    0.984681   -3.899471   -3.899471    2.081567   -0.000000   -0.000000    0.000000
    1.027493   -4.079654   -4.079654    2.050782   -0.000000   -0.000000    0.000000
    1.070305   -4.078269   -4.078269    2.026343   -0.000000   -0.000000    0.000000
    1.113117   -3.872444   -3.872444    2.004656   -0.000000   -0.000000    0.000000
    1.155929   -3.564475   -3.564475    1.983345   -0.000000   -0.000000    0.000000
    1.198742   -3.231133   -3.231133    1.962441   -0.000000   -0.000000    0.000000
    1.241554   -2.899286   -2.899286    1.942210   -0.000000    0.000000    0.000000
    1.284366   -2.567048   -2.567048    1.923479   -0.000000    0.000000    0.000000
    1.327178   -2.216307   -2.216307    1.907114   -0.000000    0.000000    0.000000
    1.369991   -1.824036   -1.824036    1.892851   -0.000000    0.000000    0.000000
    1.412803   -1.392921   -1.392921    1.878034    0.000000    0.000000    0.000000
    1.455615   -0.949901   -0.949901    1.859039    0.000000    0.000000    0.000000
    1.498427   -0.516181   -0.516181    1.838588    0.000000    0.000000    0.000000
    1.541239   -0.103847   -0.103847    1.823881    0.000000    0.000000    0.000000
    1.584052    0.280431    0.280431    1.818500    0.000000    0.000000    0.000000
    1.626864    0.633249    0.633249    1.821830    0.000000    0.000000    0.000000
    1.669676    0.951763    0.951763    1.830636    0.000000    0.000000   -0.000000
    1.712488    1.233166    1.233166    1.841907    0.000000    0.000000   -0.000000
    1.755300    1.476246    1.476246    1.853402    0.000000    0.000000   -0.000000
    1.798113    1.683952    1.683952    1.862440    0.000000    0.000000   -0.000000
    1.840925    1.865347    1.865347    1.867789    0.000000    0.000000   -0.000000
    1.883737    2.030550    2.030550    1.869935    0.000000   -0.000000   -0.000000
    1.926549    2.183719    2.183719    1.867798    0.000000   -0.000000   -0.000000
    1.969361    2.322861    2.322861    1.857967    0.000000   -0.000000   -0.000000
    2.012174    2.445600    2.445600    1.838103    0.000000   -0.000000   -0.000000
    2.054986    2.549180    2.549180    1.811051    0.000000   -0.000000   -0.000000
    2.097798    2.621355    2.621355    1.782022    0.000000   -0.000000   -0.000000
    2.140610    2.620893    2.620893    1.756948    0.000000   -0.000000   -0.000000
    2.183422    2.427884    2.427884    1.740794    0.000000   -0.000000   -0.000000
    2.226235    1.837522    1.837522    1.729914    0.000000   -0.000000   -0.000000
    2.269047    0.803895    0.803895    1.714555    0.000000   -0.000000   -0.000000
    2.311859   -0.417546   -0.417546    1.694553   -0.000000    0.000000   -0.000000
    2.354671   -1.540746   -1.540746    1.680977   -0.000000   -0.000000   -0.000000
    2.397483   -2.438884   -2.438884    1.678169   -0.000000    0.000000   -0.000000
    2.440296   -3.090214   -3.090214    1.681255   -0.000000    0.000000   -0.000000
    2.483108   -3.498224   -3.498224    1.685635   -0.000000    0.000000   -0.000000
    2.525920   -3.668839   -3.668839    1.689331   -0.000000    0.000000   -0.000000
[...]
   42.170020    0.927330    0.927330    0.964351   -0.000000   -0.000000    0.000000
   42.212833    0.927495    0.927495    0.964427   -0.000000   -0.000000    0.000000
   42.255645    0.927660    0.927660    0.964504   -0.000000   -0.000000    0.000000
   42.298457    0.927824    0.927824    0.964581   -0.000000   -0.000000    0.000000
   42.341269    0.927987    0.927987    0.964657   -0.000000   -0.000000    0.000000
   42.384081    0.928150    0.928150    0.964733   -0.000000   -0.000000    0.000000
   42.426894    0.928312    0.928312    0.964808   -0.000000   -0.000000    0.000000
   42.469706    0.928473    0.928473    0.964884   -0.000000   -0.000000    0.000000
   42.512518    0.928635    0.928635    0.964959   -0.000000   -0.000000    0.000000
   42.555330    0.928795    0.928795    0.965034   -0.000000   -0.000000    0.000000
   42.598142    0.928955    0.928955    0.965108   -0.000000   -0.000000    0.000000
   42.640955    0.929114    0.929114    0.965183   -0.000000   -0.000000    0.000000
   42.683767    0.929273    0.929273    0.965257   -0.000000   -0.000000    0.000000
   42.726579    0.929431    0.929431    0.965331   -0.000000   -0.000000    0.000000
   42.769391    0.929589    0.929589    0.965405   -0.000000   -0.000000    0.000000

 The outermost node in the dielectric function lies at epsilon=  13.2

 BZINTS: Fermi energy:  4.025917; 16.000000 electrons
         Band energy: -86.233438;  BLOECHL correction:  0.000000