 vasp.5.3.5 31Mar14 (build Dec 14 2018 19:18:10) complex

 INCAR:
 POTCAR:    PAW Au 04Oct2007
 POTCAR:   PAW Al 17Apr2000
 POTCAR:    PAW Au 04Oct2007
   VRHFIN =Au: s1d10

   TITEL  = PAW Au 04Oct2007
   POMASS =  196.966; ZVAL   =   11.000    mass and valenz
   ENMAX  =  229.869; ENMIN  =  172.402 eV

 POTCAR:   PAW Al 17Apr2000
   VRHFIN =Al: s2p1

   TITEL  = PAW Al 17Apr2000
   POMASS =   26.982; ZVAL   =    3.000    mass and valenz
   ENMAX  =  240.957; ENMIN  =  180.718 eV
   QCUT   =   -4.208; QGAM   =    8.417    optimization parameters

   Description
     l     E      TYP  RCUT    TYP  RCUT
     0   .000     23  1.900
     0   .000     23  1.900
     1   .000     23  1.900
     1  1.000     23  1.900
     2   .000      7  1.900

  PAW Au 04Oct2007                      :
 PAW Al 17Apr2000                       :

 POSCAR: AuAl2
  positions in direct lattice
  velocities in cartesian coordinates
 exchange correlation table for  LEXCH =        2
   RHO(1)=    0.500       N(1)  =     2000
   RHO(2)=  100.500       N(2)  =     4000

 ion  position               nearest neighbor table
   1  0.000  0.000  0.000-   3 2.60   3 2.60   3 2.60   2 2.60   3 2.60   2 2.60   2 2.60   2 2.60

   2  0.250  0.250  0.250-   1 2.60   1 2.60   1 2.60   1 2.60   3 3.00   3 3.00   3 3.00   3 3.00
                             3 3.00   3 3.00
   3  0.750  0.750  0.750-   1 2.60   1 2.60   1 2.60   1 2.60   2 3.00   2 3.00   2 3.00   2 3.00
                             2 3.00   2 3.00

  LATTYP: Found a face centered cubic cell.
 ALAT       =     6.0000000000

  Lattice vectors:

 A1 = (   0.0000000000,   3.0000000000,   3.0000000000)
 A2 = (   3.0000000000,   0.0000000000,   3.0000000000)
 A3 = (   3.0000000000,   3.0000000000,   0.0000000000)

Analysis of symmetry for initial positions (statically):
 Subroutine PRICEL returns:
 Original cell was already a primitive cell.

 Routine SETGRP: Setting up the symmetry group for a
 face centered cubic supercell.

 Subroutine GETGRP returns: Found 48 space group operations
 (whereof 48 operations were pure point group operations)
 out of a pool of 48 trial point group operations.

The static configuration has the point symmetry O_h .

Analysis of symmetry for dynamics (positions and initial velocities):
 Subroutine PRICEL returns:
 Original cell was already a primitive cell.

 Routine SETGRP: Setting up the symmetry group for a
 face centered cubic supercell.

 Subroutine GETGRP returns: Found 48 space group operations
 (whereof 48 operations were pure point group operations)
 out of a pool of 48 trial point group operations.

The dynamic configuration has the point symmetry O_h .

 KPOINTS: 10X10x10

Automatic generation of k-mesh.
Space group operators:
 irot       det(A)        alpha          n_x          n_y          n_z        tau_x        tau_y        tau_z
    1     1.000000     0.000000     1.000000     0.000000     0.000000     0.000000     0.000000     0.000000
    2    -1.000000     0.000000     1.000000     0.000000     0.000000     0.000000     0.000000     0.000000
    3     1.000000   120.000000    -0.577350    -0.577350    -0.577350     0.000000     0.000000     0.000000
    4    -1.000000   120.000000    -0.577350    -0.577350    -0.577350     0.000000     0.000000     0.000000
    5     1.000000   120.000000     0.577350     0.577350     0.577350     0.000000     0.000000     0.000000
    6    -1.000000   120.000000     0.577350     0.577350     0.577350     0.000000     0.000000     0.000000
    7     1.000000    90.000000     0.000000     0.000000    -1.000000     0.000000     0.000000     0.000000
    8    -1.000000    90.000000     0.000000     0.000000    -1.000000     0.000000     0.000000     0.000000
    9     1.000000   180.000000     0.000000     0.707107     0.707107     0.000000     0.000000     0.000000
   10    -1.000000   180.000000     0.000000     0.707107     0.707107     0.000000     0.000000     0.000000
   11     1.000000    90.000000     0.000000     1.000000     0.000000     0.000000     0.000000     0.000000
   12    -1.000000    90.000000     0.000000     1.000000     0.000000     0.000000     0.000000     0.000000
   13     1.000000   180.000000     0.000000     0.000000     1.000000     0.000000     0.000000     0.000000
   14    -1.000000   180.000000     0.000000     0.000000     1.000000     0.000000     0.000000     0.000000
   15     1.000000   120.000000    -0.577350     0.577350     0.577350     0.000000     0.000000     0.000000
   16    -1.000000   120.000000    -0.577350     0.577350     0.577350     0.000000     0.000000     0.000000
   17     1.000000   120.000000    -0.577350     0.577350    -0.577350     0.000000     0.000000     0.000000
   18    -1.000000   120.000000    -0.577350     0.577350    -0.577350     0.000000     0.000000     0.000000
   19     1.000000    90.000000     0.000000     0.000000     1.000000     0.000000     0.000000     0.000000
   20    -1.000000    90.000000     0.000000     0.000000     1.000000     0.000000     0.000000     0.000000
   21     1.000000    90.000000    -1.000000     0.000000     0.000000     0.000000     0.000000     0.000000
   22    -1.000000    90.000000    -1.000000     0.000000     0.000000     0.000000     0.000000     0.000000
   23     1.000000   180.000000     0.707107     0.000000     0.707107     0.000000     0.000000     0.000000
   24    -1.000000   180.000000     0.707107     0.000000     0.707107     0.000000     0.000000     0.000000
   25     1.000000   120.000000     0.577350    -0.577350     0.577350     0.000000     0.000000     0.000000
   26    -1.000000   120.000000     0.577350    -0.577350     0.577350     0.000000     0.000000     0.000000
   27     1.000000   120.000000    -0.577350    -0.577350     0.577350     0.000000     0.000000     0.000000
   28    -1.000000   120.000000    -0.577350    -0.577350     0.577350     0.000000     0.000000     0.000000
   29     1.000000   180.000000     1.000000     0.000000     0.000000     0.000000     0.000000     0.000000
   30    -1.000000   180.000000     1.000000     0.000000     0.000000     0.000000     0.000000     0.000000
   31     1.000000    90.000000     0.000000    -1.000000     0.000000     0.000000     0.000000     0.000000
   32    -1.000000    90.000000     0.000000    -1.000000     0.000000     0.000000     0.000000     0.000000
   33     1.000000   180.000000     0.707107     0.707107     0.000000     0.000000     0.000000     0.000000
   34    -1.000000   180.000000     0.707107     0.707107     0.000000     0.000000     0.000000     0.000000
   35     1.000000    90.000000     1.000000     0.000000     0.000000     0.000000     0.000000     0.000000
   36    -1.000000    90.000000     1.000000     0.000000     0.000000     0.000000     0.000000     0.000000
   37     1.000000   120.000000     0.577350    -0.577350    -0.577350     0.000000     0.000000     0.000000
   38    -1.000000   120.000000     0.577350    -0.577350    -0.577350     0.000000     0.000000     0.000000
   39     1.000000   180.000000     0.000000     1.000000     0.000000     0.000000     0.000000     0.000000
   40    -1.000000   180.000000     0.000000     1.000000     0.000000     0.000000     0.000000     0.000000
   41     1.000000   120.000000     0.577350     0.577350    -0.577350     0.000000     0.000000     0.000000
   42    -1.000000   120.000000     0.577350     0.577350    -0.577350     0.000000     0.000000     0.000000
   43     1.000000   180.000000     0.000000    -0.707107     0.707107     0.000000     0.000000     0.000000
   44    -1.000000   180.000000     0.000000    -0.707107     0.707107     0.000000     0.000000     0.000000
   45     1.000000   180.000000     0.707107    -0.707107     0.000000     0.000000     0.000000     0.000000
   46    -1.000000   180.000000     0.707107    -0.707107     0.000000     0.000000     0.000000     0.000000
   47     1.000000   180.000000     0.707107     0.000000    -0.707107     0.000000     0.000000     0.000000
   48    -1.000000   180.000000     0.707107     0.000000    -0.707107     0.000000     0.000000     0.000000

 Subroutine IBZKPT returns following result:

 Found    110 irreducible k-points:

 Following reciprocal coordinates:
            Coordinates               Weight
  0.050000  0.050000  0.050000     96.000000
  0.150000  0.050000  0.050000    288.000000
  0.250000  0.050000  0.050000    288.000000
  0.350000  0.050000  0.050000    288.000000
  0.450000  0.050000  0.050000    288.000000
 -0.450000  0.050000  0.050000    288.000000
 -0.350000  0.050000  0.050000    288.000000
 -0.250000  0.050000  0.050000    288.000000
 -0.150000  0.050000  0.050000    288.000000
 -0.050000  0.050000  0.050000    288.000000
  0.150000  0.150000  0.050000    288.000000
  0.250000  0.150000  0.050000    576.000000
  0.350000  0.150000  0.050000    576.000000
  0.450000  0.150000  0.050000    576.000000
 -0.450000  0.150000  0.050000    576.000000
 -0.350000  0.150000  0.050000    576.000000
 -0.250000  0.150000  0.050000    576.000000
 -0.150000  0.150000  0.050000    576.000000
 -0.050000  0.150000  0.050000    576.000000
  0.250000  0.250000  0.050000    288.000000
  0.350000  0.250000  0.050000    576.000000
  0.450000  0.250000  0.050000    576.000000
 -0.450000  0.250000  0.050000    576.000000
 -0.350000  0.250000  0.050000    576.000000
 -0.250000  0.250000  0.050000    576.000000
 -0.150000  0.250000  0.050000    576.000000
 -0.050000  0.250000  0.050000    576.000000
  0.350000  0.350000  0.050000    288.000000
  0.450000  0.350000  0.050000    576.000000
 -0.450000  0.350000  0.050000    576.000000
 -0.350000  0.350000  0.050000    576.000000
 -0.250000  0.350000  0.050000    576.000000
 -0.150000  0.350000  0.050000    576.000000
 -0.050000  0.350000  0.050000    576.000000
  0.450000  0.450000  0.050000    288.000000
 -0.450000  0.450000  0.050000    576.000000
 -0.350000  0.450000  0.050000    576.000000
 -0.250000  0.450000  0.050000    576.000000
 -0.150000  0.450000  0.050000    576.000000
 -0.050000  0.450000  0.050000    576.000000
 -0.450000 -0.450000  0.050000    288.000000
 -0.350000 -0.450000  0.050000    576.000000
 -0.250000 -0.450000  0.050000    576.000000
 -0.150000 -0.450000  0.050000    576.000000
 -0.350000 -0.350000  0.050000    288.000000
 -0.250000 -0.350000  0.050000    576.000000
 -0.150000 -0.350000  0.050000    576.000000
 -0.250000 -0.250000  0.050000    288.000000
 -0.150000 -0.250000  0.050000    576.000000
 -0.150000 -0.150000  0.050000    288.000000
  0.150000  0.150000  0.150000     96.000000
  0.250000  0.150000  0.150000    288.000000
  0.350000  0.150000  0.150000    288.000000
  0.450000  0.150000  0.150000    288.000000
 -0.450000  0.150000  0.150000    288.000000
 -0.350000  0.150000  0.150000    288.000000
 -0.250000  0.150000  0.150000    288.000000
 -0.150000  0.150000  0.150000    288.000000
  0.250000  0.250000  0.150000    288.000000
  0.350000  0.250000  0.150000    576.000000
[...]
 -0.350000  0.450000  0.250000    576.000000
 -0.250000  0.450000  0.250000    576.000000
 -0.450000 -0.450000  0.250000    288.000000
 -0.350000 -0.450000  0.250000    576.000000
[...]
  augment    62.48578    62.48578    62.48578    -0.00018    -0.00018    -0.00018
  Kinetic   182.29074   176.82734   182.40985    -1.10522     0.99053    -0.10090
  Fock        0.00000     0.00000     0.00000     0.00000     0.00000     0.00000
  Total      -0.96074    -0.96074    -0.96074    -0.00000    -0.00000     0.00000
  in kB     -28.50498   -28.50498   -28.50498    -0.00000    -0.00000     0.00000

 VOLUME and BASIS-vectors are now :
  energy-cutoff  :      240.96
  volume of cell :       54.00
      direct lattice vectors                 reciprocal lattice vectors
     0.000000000  3.000000000  3.000000000    -0.166666667  0.166666667  0.166666667
     3.000000000  0.000000000  3.000000000     0.166666667 -0.166666667  0.166666667
     3.000000000  3.000000000  0.000000000     0.166666667  0.166666667 -0.166666667

  length of vectors
     4.242640687  4.242640687  4.242640687     0.288675135  0.288675135  0.288675135

 FORCES acting on ions
    electron-ion (+dipol)            ewald-force                    non-local-force                 convergence-correction
   0.107E-13 0.195E-13 0.168E-13   -.126E-14 -.590E-14 0.407E-14   0.000E+00 0.000E+00 0.000E+00   0.242E-13 0.206E-13 0.562E-13
   -.493E-05 -.493E-05 -.493E-05   -.315E-14 0.768E-14 -.109E-13   -.243E-16 -.382E-16 -.243E-16   0.571E-07 0.571E-07 0.571E-07
   0.493E-05 0.493E-05 0.493E-05   0.467E-14 -.144E-14 0.747E-14   0.278E-16 0.278E-16 0.226E-16   -.571E-07 -.571E-07 -.571E-07
   0.772E-13 -.111E-12 -.137E-12   0.262E-15 0.346E-15 0.653E-15   0.347E-17 -.104E-16 -.173E-17   0.235E-13 0.196E-13 0.538E-13

 POSITION                                       TOTAL-FORCE (eV/Angst)
      0.00000      0.00000      0.00000        -0.000000      0.000000     -0.000000
      1.50000      1.50000      1.50000         0.000000      0.000000      0.000000
      4.50000      4.50000      4.50000        -0.000000     -0.000000     -0.000000
    total drift:                                0.000000     -0.000000     -0.000000

  FREE ENERGIE OF THE ION-ELECTRON SYSTEM (eV)
  free  energy   TOTEN  =       -14.28414793 eV

  energy  without entropy=      -14.28211376  energy(sigma->0) =      -14.28346988

 writing wavefunctions

 plasma frequency squared (from intraband transitions)
      75.151       0.000       0.000
       0.000      75.151      -0.000
       0.000      -0.000      75.151

 electrical conductivity sigma (Mega S m-1) (frequency dependency in vasprun.xml)
       0.154       0.000       0.000
      -0.000       0.154      -0.000
       0.000      -0.000       0.154

 plasma frequency squared (from intraband transitions)

 plasma frequency squared (from interband transitions, int dw w eps(2)(w)
     298.679      -0.000       0.000
      -0.000     298.679      -0.000
       0.000      -0.000     298.679
 plasma frequency squared  (valence only):     434.089

  frequency dependent IMAGINARY DIELECTRIC FUNCTION (independent particle, no local field effects)
     E(ev)      X         Y         Z        XY        YZ        ZX
    0.000000    0.000000    0.000000    0.000000    0.000000    0.000000    0.000000
    0.428875   37.327410   37.327410   37.327410   -0.000000    0.000000    0.000000
    0.857749   13.863803   13.863803   13.863803   -0.000000    0.000000    0.000000
    1.286624    3.383178    3.383178    3.383178    0.000000    0.000000    0.000000
    1.715498    3.873955    3.873955    3.873955   -0.000000   -0.000000    0.000000
    2.144373    6.141095    6.141095    6.141095   -0.000000   -0.000000    0.000000
    2.573248   14.687315   14.687315   14.687315   -0.000000   -0.000000   -0.000000
    3.002122   20.570244   20.570244   20.570244   -0.000000   -0.000000    0.000000
    3.430997   15.878285   15.878285   15.878285   -0.000000   -0.000000    0.000000
    3.859871    9.822163    9.822163    9.822163   -0.000000   -0.000000    0.000000
    4.288746    8.874140    8.874140    8.874140    0.000000    0.000000    0.000000
    4.717621    6.206724    6.206724    6.206724    0.000000    0.000000   -0.000000
    5.146495    5.215940    5.215940    5.215940   -0.000000   -0.000000    0.000000
    5.575370    4.132334    4.132334    4.132334    0.000000    0.000000    0.000000
    6.004244    4.048463    4.048463    4.048463    0.000000    0.000000    0.000000
    6.433119    2.880394    2.880394    2.880394    0.000000    0.000000   -0.000000
    6.861993    2.780728    2.780728    2.780728   -0.000000   -0.000000   -0.000000
    7.290868    1.947726    1.947726    1.947726    0.000000   -0.000000    0.000000
    7.719743    1.954723    1.954723    1.954723   -0.000000   -0.000000    0.000000
    8.148617    2.092714    2.092714    2.092714    0.000000    0.000000    0.000000
    8.577492    2.482579    2.482579    2.482579    0.000000   -0.000000    0.000000
    9.006366    2.668855    2.668855    2.668855    0.000000   -0.000000   -0.000000
    9.435241    2.566312    2.566312    2.566312   -0.000000    0.000000    0.000000
    9.864116    1.818523    1.818523    1.818523   -0.000000   -0.000000    0.000000
   10.292990    1.733412    1.733412    1.733412    0.000000    0.000000   -0.000000
   10.721865    1.747226    1.747226    1.747226    0.000000    0.000000   -0.000000
   11.150739    1.696029    1.696029    1.696029   -0.000000    0.000000   -0.000000
   11.579614    1.695009    1.695009    1.695009    0.000000    0.000000   -0.000000
   12.008489    1.502033    1.502033    1.502033    0.000000    0.000000   -0.000000
   12.437363    1.427150    1.427150    1.427150   -0.000000   -0.000000    0.000000
   12.866238    1.293763    1.293763    1.293763    0.000000   -0.000000    0.000000
   13.295112    1.125073    1.125073    1.125073   -0.000000   -0.000000   -0.000000
   13.723987    0.951175    0.951175    0.951175    0.000000   -0.000000   -0.000000
   14.152862    0.953698    0.953698    0.953698    0.000000   -0.000000   -0.000000
   14.581736    0.929620    0.929620    0.929620   -0.000000   -0.000000    0.000000
   15.010611    0.868027    0.868027    0.868027   -0.000000   -0.000000    0.000000
   15.439485    0.767249    0.767249    0.767249    0.000000   -0.000000    0.000000
   15.868360    0.681219    0.681219    0.681219   -0.000000   -0.000000   -0.000000
   16.297235    0.645506    0.645506    0.645506    0.000000    0.000000    0.000000
   16.726109    0.647629    0.647629    0.647629    0.000000   -0.000000   -0.000000
   17.154984    0.617075    0.617075    0.617075    0.000000    0.000000   -0.000000
   17.583858    0.607268    0.607268    0.607268   -0.000000    0.000000   -0.000000
   18.012733    0.669345    0.669345    0.669345   -0.000000    0.000000   -0.000000
   18.441608    0.595093    0.595093    0.595093    0.000000    0.000000   -0.000000
   18.870482    0.615988    0.615988    0.615988   -0.000000   -0.000000   -0.000000
   19.299357    0.517545    0.517545    0.517545    0.000000   -0.000000   -0.000000
   19.728231    0.510171    0.510171    0.510171    0.000000    0.000000   -0.000000
   20.157106    0.574893    0.574893    0.574893   -0.000000   -0.000000    0.000000
   20.585980    0.568238    0.568238    0.568238   -0.000000   -0.000000    0.000000
   21.014855    0.460349    0.460349    0.460349    0.000000    0.000000    0.000000
   21.443730    0.439793    0.439793    0.439793   -0.000000   -0.000000    0.000000
   21.872604    0.455366    0.455366    0.455366   -0.000000   -0.000000    0.000000
   22.301479    0.436445    0.436445    0.436445   -0.000000    0.000000   -0.000000
   22.730353    0.472404    0.472404    0.472404    0.000000   -0.000000    0.000000
   23.159228    0.430702    0.430702    0.430702   -0.000000   -0.000000    0.000000
   23.588103    0.402774    0.402774    0.402774    0.000000   -0.000000    0.000000
   24.016977    0.358487    0.358487    0.358487   -0.000000   -0.000000    0.000000
   24.445852    0.365591    0.365591    0.365591    0.000000    0.000000   -0.000000
   24.874726    0.344259    0.344259    0.344259   -0.000000   -0.000000   -0.000000
   25.303601    0.302824    0.302824    0.302824    0.000000    0.000000   -0.000000
[...]
   36.454340    0.002169    0.002169    0.002169   -0.000000   -0.000000    0.000000
   36.883215    0.002036    0.002036    0.002036   -0.000000   -0.000000    0.000000
   37.312090    0.001917    0.001917    0.001917   -0.000000   -0.000000    0.000000
   37.740964    0.001810    0.001810    0.001810   -0.000000   -0.000000    0.000000
   38.169839    0.001713    0.001713    0.001713   -0.000000   -0.000000    0.000000
   38.598713    0.001625    0.001625    0.001625   -0.000000   -0.000000    0.000000
   39.027588    0.001544    0.001544    0.001544   -0.000000   -0.000000    0.000000
   39.456463    0.001470    0.001470    0.001470   -0.000000   -0.000000    0.000000
   39.885337    0.001401    0.001401    0.001401   -0.000000   -0.000000    0.000000
   40.314212    0.001337    0.001337    0.001337   -0.000000   -0.000000    0.000000
   40.743086    0.001278    0.001278    0.001278   -0.000000   -0.000000    0.000000
   41.171961    0.001223    0.001223    0.001223   -0.000000   -0.000000    0.000000
   41.600836    0.001172    0.001172    0.001172   -0.000000   -0.000000    0.000000
   42.029710    0.001124    0.001124    0.001124   -0.000000   -0.000000    0.000000
   42.458585    0.001078    0.001078    0.001078   -0.000000   -0.000000    0.000000

  frequency dependent      REAL DIELECTRIC FUNCTION (independent particle, no local field effects)
     E(ev)      X         Y         Z        XY        YZ        ZX
    0.000000  158.399888  158.399888  158.399888    0.000000    0.000000    0.000000
    0.428875  -15.031993  -15.031993  -15.031993    0.000000   -0.000000   -0.000000
    0.857749    0.409796    0.409796    0.409796   -0.000000   -0.000000   -0.000000
    1.286624    5.594732    5.594732    5.594732   -0.000000   -0.000000   -0.000000
    1.715498   10.683490   10.683490   10.683490   -0.000000   -0.000000   -0.000000
    2.144373   15.186271   15.186271   15.186271   -0.000000   -0.000000   -0.000000
    2.573248   15.871647   15.871647   15.871647   -0.000000   -0.000000    0.000000
    3.002122    5.425608    5.425608    5.425608    0.000000   -0.000000   -0.000000
    3.430997   -2.738008   -2.738008   -2.738008   -0.000000    0.000000   -0.000000
    3.859871   -2.497163   -2.497163   -2.497163    0.000000    0.000000    0.000000
    4.288746   -3.320655   -3.320655   -3.320655   -0.000000   -0.000000   -0.000000
    4.717621   -2.402923   -2.402923   -2.402923   -0.000000    0.000000   -0.000000
    5.146495   -3.081094   -3.081094   -3.081094    0.000000    0.000000    0.000000
    5.575370   -1.257003   -1.257003   -1.257003    0.000000    0.000000   -0.000000
    6.004244   -1.933914   -1.933914   -1.933914    0.000000   -0.000000   -0.000000
    6.433119   -1.640025   -1.640025   -1.640025    0.000000   -0.000000   -0.000000
    6.861993   -1.095780   -1.095780   -1.095780    0.000000   -0.000000   -0.000000
    7.290868   -0.994370   -0.994370   -0.994370   -0.000000    0.000000   -0.000000
    7.719743   -0.036209   -0.036209   -0.036209    0.000000    0.000000   -0.000000
    8.148617    0.107076    0.107076    0.107076    0.000000    0.000000   -0.000000
    8.577492    0.395557    0.395557    0.395557    0.000000    0.000000   -0.000000
    9.006366    0.154126    0.154126    0.154126    0.000000    0.000000   -0.000000
    9.435241   -0.601580   -0.601580   -0.601580   -0.000000   -0.000000   -0.000000
    9.864116   -0.420233   -0.420233   -0.420233   -0.000000   -0.000000   -0.000000
   10.292990   -0.269211   -0.269211   -0.269211    0.000000   -0.000000   -0.000000
   10.721865   -0.074629   -0.074629   -0.074629    0.000000   -0.000000   -0.000000
   11.150739   -0.115050   -0.115050   -0.115050    0.000000   -0.000000   -0.000000
   11.579614   -0.157582   -0.157582   -0.157582    0.000000   -0.000000   -0.000000
   12.008489   -0.224855   -0.224855   -0.224855   -0.000000   -0.000000   -0.000000
   12.437363   -0.173619   -0.173619   -0.173619   -0.000000   -0.000000   -0.000000
   12.866238   -0.323540   -0.323540   -0.323540    0.000000   -0.000000   -0.000000
   13.295112   -0.159562   -0.159562   -0.159562   -0.000000   -0.000000   -0.000000
   13.723987   -0.106473   -0.106473   -0.106473    0.000000    0.000000   -0.000000
   14.152862   -0.022292   -0.022292   -0.022292   -0.000000   -0.000000   -0.000000
   14.581736   -0.025390   -0.025390   -0.025390    0.000000    0.000000   -0.000000
   15.010611   -0.024193   -0.024193   -0.024193    0.000000    0.000000   -0.000000
   15.439485    0.030207    0.030207    0.030207    0.000000    0.000000   -0.000000
   15.868360    0.117726    0.117726    0.117726    0.000000    0.000000   -0.000000
   16.297235    0.139331    0.139331    0.139331    0.000000    0.000000   -0.000000
   16.726109    0.232746    0.232746    0.232746    0.000000    0.000000   -0.000000
   17.154984    0.277053    0.277053    0.277053   -0.000000    0.000000   -0.000000
   17.583858    0.306464    0.306464    0.306464   -0.000000   -0.000000   -0.000000
   18.012733    0.311909    0.311909    0.311909    0.000000    0.000000    0.000000
   18.441608    0.339080    0.339080    0.339080   -0.000000   -0.000000    0.000000
   18.870482    0.265719    0.265719    0.265719   -0.000000   -0.000000   -0.000000
   19.299357    0.328142    0.328142    0.328142    0.000000    0.000000   -0.000000
   19.728231    0.394088    0.394088    0.394088   -0.000000   -0.000000   -0.000000
   20.157106    0.383839    0.383839    0.383839   -0.000000   -0.000000    0.000000
   20.585980    0.362504    0.362504    0.362504    0.000000    0.000000    0.000000
   21.014855    0.328268    0.328268    0.328268    0.000000    0.000000    0.000000
   21.443730    0.402385    0.402385    0.402385   -0.000000    0.000000   -0.000000
   21.872604    0.416500    0.416500    0.416500   -0.000000    0.000000   -0.000000
   22.301479    0.438834    0.438834    0.438834    0.000000    0.000000   -0.000000
   22.730353    0.402491    0.402491    0.402491    0.000000   -0.000000   -0.000000
   23.159228    0.412747    0.412747    0.412747    0.000000    0.000000   -0.000000
   23.588103    0.374387    0.374387    0.374387    0.000000    0.000000   -0.000000
   24.016977    0.411633    0.411633    0.411633    0.000000    0.000000   -0.000000
   24.445852    0.432239    0.432239    0.432239    0.000000   -0.000000   -0.000000
   24.874726    0.412911    0.412911    0.412911    0.000000    0.000000   -0.000000
   25.303601    0.419210    0.419210    0.419210   -0.000000    0.000000   -0.000000
[...]
   36.454340    0.717609    0.717609    0.717609    0.000000    0.000000   -0.000000
   36.883215    0.726619    0.726619    0.726619    0.000000    0.000000   -0.000000
   37.312090    0.735090    0.735090    0.735090    0.000000    0.000000   -0.000000
   37.740964    0.743079    0.743079    0.743079    0.000000    0.000000   -0.000000
   38.169839    0.750631    0.750631    0.750631    0.000000    0.000000   -0.000000
   38.598713    0.757786    0.757786    0.757786    0.000000    0.000000   -0.000000
   39.027588    0.764579    0.764579    0.764579    0.000000    0.000000   -0.000000
   39.456463    0.771039    0.771039    0.771039    0.000000    0.000000   -0.000000
   39.885337    0.777193    0.777193    0.777193    0.000000    0.000000   -0.000000
   40.314212    0.783062    0.783062    0.783062    0.000000    0.000000   -0.000000
   40.743086    0.788669    0.788669    0.788669    0.000000    0.000000   -0.000000
   41.171961    0.794031    0.794031    0.794031    0.000000    0.000000   -0.000000
   41.600836    0.799165    0.799165    0.799165    0.000000    0.000000   -0.000000
   42.029710    0.804085    0.804085    0.804085    0.000000    0.000000   -0.000000
   42.458585    0.808806    0.808806    0.808806    0.000000    0.000000   -0.000000

 The outermost node in the dielectric function lies at epsilon=  15.3

volume of typ            1:    26.3 %

volume of typ            2:    42.8 %

total charge

# of ion     s       p       d       tot
  1        0.840   0.829   8.674  10.343
  2        0.757   0.884   0.184   1.825
  3        0.757   0.884   0.184   1.825
tot         2.35    2.60    9.04   13.99

orbital moment (x)

[...]

orbital moment (y)

[...]

orbital moment (z)

# of ion   s             p             d             tot
   1     0.000000E+00  0.156558E-07 -0.302182E-08  0.126340E-07
   2     0.000000E+00  0.154327E-02  0.884147E-02  0.103847E-01
   3     0.000000E+00 -0.154326E-02 -0.884148E-02 -0.103847E-01
tot      0.000000E+00  0.165512E-07 -0.103303E-07  0.622091E-08