 vasp.5.4.4.18Apr17-6-g9f103f2a35 (build May 20 2018 16:52:39) complex

 executed on             LinuxIFC date 2022.11.15  16:54:10

 INCAR:
 POTCAR:   PAW_PBE C 08Apr2002
 POTCAR:   PAW_PBE C 08Apr2002
   VRHFIN =C: s2p2

   TITEL  = PAW_PBE C 08Apr2002
   POMASS =   12.011; ZVAL   =    4.000    mass and valenz
   ENMAX  =  400.000; ENMIN  =  300.000 eV
   QCUT   =   -5.516; QGAM   =   11.032    optimization parameters

   Description
     l     E      TYP  RCUT    TYP  RCUT
     0   .000     23  1.200
     0   .000     23  1.200
     1   .000     23  1.500
     1  2.500     23  1.500
     2   .000      7  1.500

 PAW_PBE C 08Apr2002                    :

 POSCAR: bilayer graphene (AB stacking, 3.46A int
  positions in direct lattice
 exchange correlation table for  LEXCH =        8
   RHO(1)=    0.500       N(1)  =     2000
   RHO(2)=  100.500       N(2)  =     4000

 ion  position               nearest neighbor table
   1  0.000  0.000  0.000-   2 1.42   2 1.42   2 1.42
   2  0.667  0.667  0.000-   1 1.42   1 1.42   1 1.42
   3  0.000  0.000  0.070-   4 1.42   4 1.42   4 1.42
   4  0.333  0.333  0.070-   3 1.42   3 1.42   3 1.42

  LATTYP: Found a base centered orthorhombic cell.
 ALAT       =     2.4600000000
 B/A-ratio  =     1.7320000000
 C/A-ratio  =    20.0000000000

  Lattice vectors:

 A1 = (   2.1303600000,  -1.2300000000,   0.0000000000)
 A2 = (  -2.1303600000,  -1.2300000000,   0.0000000000)
 A3 = (   0.0000000000,   0.0000000000, -49.2000000000)

Analysis of symmetry for initial positions (statically):
 Subroutine PRICEL returns:
 Original cell was already a primitive cell.

 Routine SETGRP: Setting up the symmetry group for a
 base centered orthorhombic supercell.

 Subroutine GETGRP returns: Found  4 space group operations
 (whereof  2 operations were pure point group operations)
 out of a pool of  8 trial point group operations.

The static configuration has the point symmetry C_1h.
 The point group associated with its full space group is C_2h.

Analysis of symmetry for dynamics (positions and initial velocities):
 Subroutine PRICEL returns:
 Original cell was already a primitive cell.

 Routine SETGRP: Setting up the symmetry group for a
 base centered orthorhombic supercell.

 Subroutine GETGRP returns: Found  4 space group operations
 (whereof  2 operations were pure point group operations)
 out of a pool of  8 trial point group operations.

The dynamic configuration has the point symmetry C_1h.
 The point group associated with its full space group is C_2h.

 Subroutine INISYM returns: Found  4 space group operations
 (whereof  2 operations are pure point group operations),
 and found     1 'primitive' translations

 KPOINTS: K-path for graphene
  interpolating k-points between supplied coordinates
  k-points in reciprocal lattice
Space group operators:
 irot       det(A)        alpha          n_x          n_y          n_z        tau_x        tau_y        tau_z
    1     1.000000     0.000000     1.000000     0.000000     0.000000     0.000000     0.000000     0.000000
    2    -1.000000   180.000000     0.000000     1.000000     0.000000     0.000000     0.000000     0.000000
    3    -1.000000     0.000000     1.000000     0.000000     0.000000     0.000000     0.000000    -0.929675
    4     1.000000   180.000000     0.000000     1.000000     0.000000     0.000000     0.000000    -0.929675

 SYSTEM =  graphene (bilayer)
 POSCAR =  bilayer graphene (AB stacking, 3.46A int

 Startparameter for this run:
   NWRITE =      2    write-flag & timer
   PREC   = normal    normal or accurate (medium, high low for compatibility)
   ISTART =      0    job   : 0-new  1-cont  2-samecut
   ICHARG =      2    charge: 1-file 2-atom 10-const
   ISPIN  =      1    spin polarized calculation?
   LNONCOLLINEAR =      F non collinear calculations
   LSORBIT =      F    spin-orbit coupling
   INIWAV =      1    electr: 0-lowe 1-rand  2-diag
   LASPH  =      F    aspherical Exc in radial PAW
   METAGGA=      F    non-selfconsistent MetaGGA calc.

 Electronic Relaxation 1
   ENCUT  =  600.0 eV  44.10 Ry    6.64 a.u.   4.91  4.91 98.26*2*pi/ulx,y,z
   ENINI  =  600.0     initial cutoff
   ENAUG  =  644.9 eV  augmentation charge cutoff
   NELM   =     60;   NELMIN=  2; NELMDL= -5     # of ELM steps
   EDIFF  = 0.1E-05   stopping-criterion for ELM
   LREAL  =      F    real-space projection
   NLSPLINE    = F    spline interpolate recip. space projectors
   LCOMPAT=      F    compatible to vasp.4.4
   GGA_COMPAT  = T    GGA compatible to vasp.4.4-vasp.4.6
   LMAXPAW     = -100 max onsite density
   LMAXMIX     =    2 max onsite mixed and CHGCAR
   VOSKOWN=      0    Vosko Wilk Nusair interpolation
   ROPT   =    0.00000
 Ionic relaxation
   EDIFFG = 0.1E-04   stopping-criterion for IOM
   NSW    =      0    number of steps for IOM
   NBLOCK =      1;   KBLOCK =      1    inner block; outer block
   IBRION =     -1    ionic relax: 0-MD 1-quasi-New 2-CG
   NFREE  =      0    steps in history (QN), initial steepest desc. (CG)
   ISIF   =      2    stress and relaxation
   IWAVPR =     10    prediction:  0-non 1-charg 2-wave 3-comb
   ISYM   =      2    0-nonsym 1-usesym 2-fastsym
   LCORR  =      T    Harris-Foulkes like correction to forces

   POTIM  = 0.5000    time-step for ionic-motion
   TEIN   =    0.0    initial temperature
   TEBEG  =    0.0;   TEEND  =   0.0 temperature during run
   SMASS  =  -3.00    Nose mass-parameter (am)
   estimated Nose-frequenzy (Omega)   =  0.10E-29 period in steps =****** mass=  -0.138E-27a.u.
   SCALEE = 1.0000    scale energy and forces
   NPACO  =    256;   APACO  = 16.0  distance and # of slots for P.C.
   PSTRESS=    0.0 pullay stress

  Mass of Ions in am
   POMASS =  12.01
  Ionic Valenz
   ZVAL   =   4.00
  Atomic Wigner-Seitz radii
  virtual crystal weights
   VCA    =   1.00
   NELECT =      16.0000    total number of electrons
   NUPDOWN=      -1.0000    fix difference up-down

 DOS related values:
   EMIN   =  10.00;   EMAX   =-10.00  energy-range for DOS
   EFERMI =   0.00
   ISMEAR =     0;   SIGMA  =   0.20  broadening in eV -4-tet -1-fermi 0-gaus

 Electronic relaxation 2 (details)
   IALGO  =     38    algorithm
   LDIAG  =      T    sub-space diagonalisation (order eigenvalues)
   LSUBROT=      F    optimize rotation matrix (better conditioning)
   TURBO    =      0    0=normal 1=particle mesh
   IRESTART =      0    0=no restart 2=restart with 2 vectors
   NREBOOT  =      0    no. of reboots
   NMIN     =      0    reboot dimension
   EREF     =   0.00    reference energy to select bands
   IMIX   =      4    mixing-type and parameters
     AMIX     =   0.40;   BMIX     =  1.00
     AMIX_MAG =   1.60;   BMIX_MAG =  1.00
     AMIN     =   0.10
     WC   =   100.;   INIMIX=   1;  MIXPRE=   1;  MAXMIX= -45

 Intra band minimization:
   WEIMIN = 0.0000     energy-eigenvalue tresh-hold
   EBREAK =  0.21E-07  absolut break condition
   DEPER  =   0.30     relativ break condition

   TIME   =   0.40     timestep for ELM

  volume/ion in A,a.u.               =      64.46       435.00
  Fermi-wavevector in a.u.,A,eV,Ry     =   0.648132  1.224793  5.715476  0.420076
  Thomas-Fermi vector in A             =   1.716666

 Write flags
   LWAVE        =      T    write WAVECAR
   LDOWNSAMPLE  =      F    k-point downsampling of WAVECAR
   LCHARG       =      F    write CHGCAR
   LVTOT        =      F    write LOCPOT, total local potential
   LVHAR        =      F    write LOCPOT, Hartree potential only
   LELF         =      F    write electronic localiz. function (ELF)
   LORBIT       =      0    0 simple, 1 ext, 2 COOP (PROOUT), +10 PAW based schemes

 Dipole corrections
   LMONO  =      F    monopole corrections only (constant potential shift)
   LDIPOL =      F    correct potential (dipole corrections)
   IDIPOL =      0    1-x, 2-y, 3-z, 4-all directions
   EPSILON=  1.0000000 bulk dielectric constant

 Exchange correlation treatment:
   GGA     =    --    GGA type
   VOSKOWN=      0    Vosko Wilk Nusair interpolation
   LHFCALC =     F    Hartree Fock is set to
   LHFONE  =     F    Hartree Fock one center treatment
   AEXX    =    0.0000 exact exchange contribution

 Linear response parameters
   LEPSILON=     F    determine dielectric tensor
   LRPA    =     F    only Hartree local field effects (RPA)
   LNABLA  =     F    use nabla operator in PAW spheres
   LVEL    =     F    velocity operator in full k-point grid
   LINTERFAST=   F  fast interpolation
   KINTER  =     0    interpolate to denser k-point grid
   CSHIFT  =0.1000    complex shift for real part using Kramers Kronig
   OMEGAMAX=  -1.0    maximum frequency
   DEG_THRESHOLD= 0.2000000E-02 threshold for treating states as degnerate
   RTIME   =   -0.100 relaxation time in fs
  (WPLASMAI=    0.000 imaginary part of plasma frequency in eV, 0.658/RTIME)
   DFIELD  = 0.0000000 0.0000000 0.0000000 field for delta impulse in time

 Orbital magnetization related:
   ORBITALMAG=     F  switch on orbital magnetization
   LCHIMAG   =     F  perturbation theory with respect to B field
   DQ        =  0.001000  dq finite difference perturbation B field
   LLRAUG    =     F  two centre corrections for induced B field

 Static calculation
 charge density and potential will be updated during run
 non-spin polarized calculation
 Variant of blocked Davidson
 Davidson routine will perform the subspace rotation
 perform sub-space diagonalisation
    after iterative eigenvector-optimisation
 modified Broyden-mixing scheme, WC =      100.0
 initial mixing is a Kerker type mixing with AMIX =  0.4000 and BMIX =      1.0000
 Hartree-type preconditioning will be used
 using additional bands            4
 reciprocal scheme for non local part
 calculate Harris-corrections to forces
   (improved forces if not selfconsistent)
 use gradient corrections
 use of overlap-Matrix (Vanderbilt PP)
 Gauss-broadening in eV      SIGMA  =   0.20

  energy-cutoff  :      600.00
  volume of cell :      257.84
      direct lattice vectors                 reciprocal lattice vectors
     2.130360000 -1.230000000  0.000000000     0.234702116 -0.406504065  0.000000000
     2.130360000  1.230000000  0.000000000     0.234702116  0.406504065  0.000000000
     0.000000000  0.000000000 49.200000000     0.000000000  0.000000000  0.020325203

  length of vectors
     2.459945879  2.459945879 49.200000000     0.469393905  0.469393905  0.020325203

 k-points in units of 2pi/SCALE and weight: K-path for graphene
   0.00000000  0.00000000  0.00000000       0.003
   0.00583199  0.00336707  0.00000000       0.003
   0.01166398  0.00673414  0.00000000       0.003
   0.01749598  0.01010121  0.00000000       0.003
   0.02332797  0.01346828  0.00000000       0.003
   0.02915996  0.01683535  0.00000000       0.003
   0.03499195  0.02020242  0.00000000       0.003
   0.04082394  0.02356949  0.00000000       0.003
   0.04665594  0.02693657  0.00000000       0.003
   0.05248793  0.03030364  0.00000000       0.003
   0.05831992  0.03367071  0.00000000       0.003
   0.06415191  0.03703778  0.00000000       0.003
   0.06998390  0.04040485  0.00000000       0.003
   0.07581590  0.04377192  0.00000000       0.003
[...]
 k-point 10 :   0.0303 0.0606 0.0000  plane waves:    8477
 k-point 11 :   0.0337 0.0673 0.0000  plane waves:    8481
 k-point 12 :   0.0370 0.0741 0.0000  plane waves:    8477
 k-point 13 :   0.0404 0.0808 0.0000  plane waves:    8481
 k-point 14 :   0.0438 0.0875 0.0000  plane waves:    8479
 k-point 15 :   0.0471 0.0943 0.0000  plane waves:    8471
 k-point 16 :   0.0505 0.1010 0.0000  plane waves:    8467
 k-point 17 :   0.0539 0.1077 0.0000  plane waves:    8469
 k-point 18 :   0.0572 0.1145 0.0000  plane waves:    8471
 k-point 19 :   0.0606 0.1212 0.0000  plane waves:    8473
 k-point 20 :   0.0640 0.1279 0.0000  plane waves:    8493
 k-point 21 :   0.0673 0.1347 0.0000  plane waves:    8501
 k-point 22 :   0.0707 0.1414 0.0000  plane waves:    8503
 k-point 23 :   0.0741 0.1481 0.0000  plane waves:    8517
 k-point 24 :   0.0774 0.1549 0.0000  plane waves:    8519
 k-point 25 :   0.0808 0.1616 0.0000  plane waves:    8515
 k-point 26 :   0.0842 0.1684 0.0000  plane waves:    8519
 k-point 27 :   0.0875 0.1751 0.0000  plane waves:    8513
 k-point 28 :   0.0909 0.1818 0.0000  plane waves:    8509
 k-point 29 :   0.0943 0.1886 0.0000  plane waves:    8509
 k-point 30 :   0.0976 0.1953 0.0000  plane waves:    8505
 k-point 31 :   0.1010 0.2020 0.0000  plane waves:    8503
 k-point 32 :   0.1044 0.2088 0.0000  plane waves:    8521
 k-point 33 :   0.1077 0.2155 0.0000  plane waves:    8533
 k-point 34 :   0.1111 0.2222 0.0000  plane waves:    8535
 k-point 35 :   0.1145 0.2290 0.0000  plane waves:    8557
 k-point 36 :   0.1178 0.2357 0.0000  plane waves:    8565
 k-point 37 :   0.1212 0.2424 0.0000  plane waves:    8553
 k-point 38 :   0.1246 0.2492 0.0000  plane waves:    8557
 k-point 39 :   0.1279 0.2559 0.0000  plane waves:    8553
 k-point 40 :   0.1313 0.2626 0.0000  plane waves:    8547
 k-point 41 :   0.1347 0.2694 0.0000  plane waves:    8551
 k-point 42 :   0.1380 0.2761 0.0000  plane waves:    8559
 k-point 43 :   0.1414 0.2828 0.0000  plane waves:    8565
 k-point 44 :   0.1448 0.2896 0.0000  plane waves:    8559
 k-point 45 :   0.1481 0.2963 0.0000  plane waves:    8559
 k-point 46 :   0.1515 0.3030 0.0000  plane waves:    8555
 k-point 47 :   0.1549 0.3098 0.0000  plane waves:    8555
 k-point 48 :   0.1582 0.3165 0.0000  plane waves:    8547
 k-point 49 :   0.1616 0.3232 0.0000  plane waves:    8535
 k-point 50 :   0.1650 0.3300 0.0000  plane waves:    8553
 k-point 51 :   0.1683 0.3367 0.0000  plane waves:    8535
 k-point 52 :   0.1717 0.3434 0.0000  plane waves:    8545
 k-point 53 :   0.1751 0.3502 0.0000  plane waves:    8537
 k-point 54 :   0.1784 0.3569 0.0000  plane waves:    8553
 k-point 55 :   0.1818 0.3636 0.0000  plane waves:    8553
 k-point 56 :   0.1852 0.3704 0.0000  plane waves:    8555
 k-point 57 :   0.1886 0.3771 0.0000  plane waves:    8557
 k-point 58 :   0.1919 0.3838 0.0000  plane waves:    8553
 k-point 59 :   0.1953 0.3906 0.0000  plane waves:    8561
 k-point 60 :   0.1987 0.3973 0.0000  plane waves:    8567
[...]
 k-point 85 :   0.2828 0.5657 0.0000  plane waves:    8731
 k-point 86 :   0.2862 0.5724 0.0000  plane waves:    8725
 k-point 87 :   0.2896 0.5791 0.0000  plane waves:    8735
 k-point 88 :   0.2929 0.5859 0.0000  plane waves:    8735
 k-point 89 :   0.2963 0.5926 0.0000  plane waves:    8745
 k-point 90 :   0.2997 0.5993 0.0000  plane waves:    8745
 k-point 91 :   0.3030 0.6061 0.0000  plane waves:    8755
 k-point 92 :   0.3064 0.6128 0.0000  plane waves:    8753
 k-point 93 :   0.3098 0.6195 0.0000  plane waves:    8745
 k-point 94 :   0.3131 0.6263 0.0000  plane waves:    8761
 k-point 95 :   0.3165 0.6330 0.0000  plane waves:    8745
 k-point 96 :   0.3199 0.6397 0.0000  plane waves:    8737
 k-point 97 :   0.3232 0.6465 0.0000  plane waves:    8749
 k-point 98 :   0.3266 0.6532 0.0000  plane waves:    8755
 k-point 99 :   0.3300 0.6599 0.0000  plane waves:    8757
 k-point ** :   0.3333 0.6667 0.0000  plane waves:    8751
 k-point ** :   0.3333 0.6667 0.0000  plane waves:    8751
 k-point ** :   0.3350 0.6599 0.0000  plane waves:    8759
 k-point ** :   0.3367 0.6532 0.0000  plane waves:    8745
 k-point ** :   0.3384 0.6465 0.0000  plane waves:    8741
 k-point ** :   0.3401 0.6397 0.0000  plane waves:    8753
 k-point ** :   0.3417 0.6330 0.0000  plane waves:    8751
 k-point ** :   0.3434 0.6263 0.0000  plane waves:    8749
 k-point ** :   0.3451 0.6195 0.0000  plane waves:    8745
 k-point ** :   0.3468 0.6128 0.0000  plane waves:    8729
 k-point ** :   0.3485 0.6061 0.0000  plane waves:    8735
 k-point ** :   0.3502 0.5993 0.0000  plane waves:    8727
 k-point ** :   0.3518 0.5926 0.0000  plane waves:    8723
 k-point ** :   0.3535 0.5859 0.0000  plane waves:    8708
 k-point ** :   0.3552 0.5791 0.0000  plane waves:    8700
 k-point ** :   0.3569 0.5724 0.0000  plane waves:    8690
 k-point ** :   0.3586 0.5657 0.0000  plane waves:    8689
 k-point ** :   0.3603 0.5589 0.0000  plane waves:    8683
 k-point ** :   0.3620 0.5522 0.0000  plane waves:    8683
 k-point ** :   0.3636 0.5455 0.0000  plane waves:    8685
 k-point ** :   0.3653 0.5387 0.0000  plane waves:    8681
 k-point ** :   0.3670 0.5320 0.0000  plane waves:    8679
 k-point ** :   0.3687 0.5253 0.0000  plane waves:    8677
 k-point ** :   0.3704 0.5185 0.0000  plane waves:    8675
 k-point ** :   0.3721 0.5118 0.0000  plane waves:    8667
 k-point ** :   0.3737 0.5051 0.0000  plane waves:    8665
 k-point ** :   0.3754 0.4983 0.0000  plane waves:    8649
 k-point ** :   0.3771 0.4916 0.0000  plane waves:    8653
 k-point ** :   0.3788 0.4849 0.0000  plane waves:    8653
 k-point ** :   0.3805 0.4781 0.0000  plane waves:    8647
 k-point ** :   0.3822 0.4714 0.0000  plane waves:    8625
 k-point ** :   0.3838 0.4646 0.0000  plane waves:    8619
 k-point ** :   0.3855 0.4579 0.0000  plane waves:    8617
 k-point ** :   0.3872 0.4512 0.0000  plane waves:    8607
 k-point ** :   0.3889 0.4444 0.0000  plane waves:    8609
 k-point ** :   0.3906 0.4377 0.0000  plane waves:    8611
 k-point ** :   0.3923 0.4310 0.0000  plane waves:    8622
 k-point ** :   0.3939 0.4242 0.0000  plane waves:    8620
 k-point ** :   0.3956 0.4175 0.0000  plane waves:    8620
 k-point ** :   0.3973 0.4108 0.0000  plane waves:    8618
 k-point ** :   0.3990 0.4040 0.0000  plane waves:    8624
 k-point ** :   0.4007 0.3973 0.0000  plane waves:    8620
 k-point ** :   0.4024 0.3906 0.0000  plane waves:    8618
 k-point ** :   0.4040 0.3838 0.0000  plane waves:    8614
 k-point ** :   0.4057 0.3771 0.0000  plane waves:    8624
 k-point ** :   0.4074 0.3704 0.0000  plane waves:    8620
 k-point ** :   0.4091 0.3636 0.0000  plane waves:    8612
 k-point ** :   0.4108 0.3569 0.0000  plane waves:    8616
 k-point ** :   0.4125 0.3502 0.0000  plane waves:    8614
 k-point ** :   0.4141 0.3434 0.0000  plane waves:    8602
 k-point ** :   0.4158 0.3367 0.0000  plane waves:    8593
 k-point ** :   0.4175 0.3300 0.0000  plane waves:    8599
 k-point ** :   0.4192 0.3232 0.0000  plane waves:    8606
 k-point ** :   0.4209 0.3165 0.0000  plane waves:    8604
 k-point ** :   0.4226 0.3098 0.0000  plane waves:    8608
 k-point ** :   0.4242 0.3030 0.0000  plane waves:    8608
 k-point ** :   0.4259 0.2963 0.0000  plane waves:    8600
 k-point ** :   0.4276 0.2896 0.0000  plane waves:    8587
 k-point ** :   0.4293 0.2828 0.0000  plane waves:    8587
 k-point ** :   0.4310 0.2761 0.0000  plane waves:    8590
[...]
 k-point ** :   0.0707 0.0000 0.0000  plane waves:    8477
 k-point ** :   0.0657 0.0000 0.0000  plane waves:    8481
 k-point ** :   0.0606 0.0000 0.0000  plane waves:    8479
 k-point ** :   0.0556 0.0000 0.0000  plane waves:    8485
 k-point ** :   0.0505 0.0000 0.0000  plane waves:    8487
 k-point ** :   0.0455 0.0000 0.0000  plane waves:    8487
 k-point ** :   0.0404 0.0000 0.0000  plane waves:    8485
 k-point ** :   0.0354 0.0000 0.0000  plane waves:    8491
 k-point ** :   0.0303 0.0000 0.0000  plane waves:    8487
 k-point ** :   0.0253 0.0000 0.0000  plane waves:    8481
 k-point ** :   0.0202 0.0000 0.0000  plane waves:    8475
 k-point ** :   0.0152 0.0000 0.0000  plane waves:    8479
 k-point ** :   0.0101 0.0000 0.0000  plane waves:    8473
 k-point ** :   0.0051 0.0000 0.0000  plane waves:    8477
 k-point ** :   0.0000 0.0000 0.0000  plane waves:    8477

 maximum and minimum number of plane-waves per node :      8761     8465

 maximum number of plane-waves:      8761
 maximum index in each direction:
   IXMAX=    4   IYMAX=    4   IZMAX=   98
   IXMIN=   -5   IYMIN=   -5   IZMIN=  -98

 serial   3D FFT for wavefunctions
 parallel 3D FFT for charge:
    minimum data exchange during FFTs selected (reduces bandwidth)

 Broyden mixing: mesh for mixing (old mesh)
   NGX =  9   NGY =  9   NGZ =197
  (NGX  = 32   NGY  = 32   NGZ  =600)
  gives a total of  15957 points

 initial charge density was supplied:
 charge density of overlapping atoms calculated
 number of electron      16.0000000 magnetization
 keeping initial charge density in first step

 Maximum index for augmentation-charges         3420 (set IRDMAX)

 First call to EWALD:  gamma=   0.278
 Maximum number of real-space cells 7x 7x 1
 Maximum number of reciprocal cells 1x 1x18

--------------------------------------- Iteration      1(   1)  ---------------------------------------

 eigenvalue-minimisations  :  8520
 total energy-change (2. order) : 0.1192698E+03  (-0.5918699E+03)
 number of electron      16.0000000 magnetization
 augmentation part       16.0000000 magnetization

 Free energy of the ion-electron system (eV)
  alpha Z        PSCENC =         5.05613508
  Ewald energy   TEWEN  =     13488.27800016
  -Hartree energ DENC   =    -13905.46305676
  -exchange      EXHF   =         0.00000000
  -V(xc)+E(xc)   XCENC  =        55.29035329
  PAW double counting   =       151.32577238     -155.92769107
  entropy T*S    EENTRO =        -0.01967388
  eigenvalues    EBANDS =      -107.87115820
  atomic energy  EATOM  =       588.60115103
  Solvation  Ediel_sol  =         0.00000000
  free energy    TOTEN  =       119.26983205 eV

  energy without entropy =      119.28950593  energy(sigma->0) =      119.27966899

[...]

 eigenvalue-minimisations  : 12240
 total energy-change (2. order) :-0.1350518E+03  (-0.1072207E+03)
 number of electron      16.0000000 magnetization
 augmentation part       16.0000000 magnetization

[...]

 Broyden mixing:
  rms(total) = 0.83209E+00    rms(broyden)= 0.83198E+00
  rms(prec ) = 0.84403E+00
  weight for this iteration     100.00

[...]

 eigenvalues of (default mixing * dielectric matrix)
  average eigenvalue GAMMA=   2.0658
  2.0658

[...]

 eigenvalue-minimisations  :  8648
 total energy-change (2. order) : 0.5411659E-04  (-0.3348762E-04)
 number of electron      16.0000000 magnetization
 augmentation part        0.4110901 magnetization

[...]

 Broyden mixing:
  rms(total) = 0.61861E-05    rms(broyden)= 0.60730E-05
  rms(prec ) = 0.68196E-05
  weight for this iteration     100.00

 eigenvalues of (default mixing * dielectric matrix)
  average eigenvalue GAMMA=   2.7805
  8.7036  7.0713  5.0715  3.4543  2.7299  2.5168  2.2561  1.9900  1.5779  1.1519
  1.1519  0.9702  0.9897  1.0363  1.0363

[...]

--------------------------------------- Iteration      1(  21)  ---------------------------------------

 eigenvalue-minimisations  :  5904
 total energy-change (2. order) :-0.4493538E-06  (-0.3388863E-09)
 number of electron      16.0000000 magnetization
 augmentation part        0.4109345 magnetization

 Free energy of the ion-electron system (eV)
  alpha Z        PSCENC =         5.05613508
  Ewald energy   TEWEN  =     13488.27800016
  -Hartree energ DENC   =    -13976.92745807
  -exchange      EXHF   =         0.00000000
  -V(xc)+E(xc)   XCENC  =        57.74037293
  PAW double counting   =       280.97588542     -286.20135382
  entropy T*S    EENTRO =        -0.00522950
  eigenvalues    EBANDS =      -192.87441457
  atomic energy  EATOM  =       588.60115103
  Solvation  Ediel_sol  =         0.00000000
  free energy    TOTEN  =       -35.35691134 eV

  energy without entropy =      -35.35168184  energy(sigma->0) =      -35.35429659

 average (electrostatic) potential at core
  the test charge radii are     0.6991
  (the norm of the test charge is              1.0000)
       1 -58.3424       2 -58.3282       3 -58.3424       4 -58.3282

 E-fermi :  -3.0058     XC(G=0):  -1.6374     alpha+bet : -1.5574

 k-point     1 :       0.0000    0.0000    0.0000
  band No.  band energies     occupation
      1     -22.6244      2.00000
      2     -22.5058      2.00000
      3     -11.0901      2.00000
      4     -10.2550      2.00000
      5      -6.0238      2.00000
      6      -6.0173      2.00000
      7      -5.9533      2.00000
      8      -5.9466      2.00000
      9       0.3514      0.00000
     10       0.7253      0.00000
     11       1.1813      0.00000
     12       1.2657      0.00000

[...]

 k-point   300 :       0.0000    0.0000    0.0000
  band No.  band energies     occupation
      1     -22.6244      2.00000
      2     -22.5058      2.00000
      3     -11.0901      2.00000
      4     -10.2550      2.00000
      5      -6.0238      2.00000
      6      -6.0173      2.00000
      7      -5.9533      2.00000
      8      -5.9466      2.00000
      9       0.3514      0.00000
     10       0.7253      0.00000
     11       1.1813      0.00000
     12       1.2657      0.00000

 soft charge-density along one line, spin component           1
         0         1         2         3         4         5         6         7         8         9
 total charge-density along one line

------------------------ aborting loop because EDIFF is reached ----------------------------------------

  FORCE on cell =-STRESS in cart. coord.  units (eV):
  Direction    XX          YY          ZZ          XY          YZ          ZX
  Alpha Z     5.05614     5.05614     5.05614
  Ewald   14027.46727 14027.33414-14566.52467     0.00000     0.00000     0.00010
  Hartree 13953.50067 13954.30222-13930.87359    -0.00000     0.00000    -0.00706
  E(xc)     -58.59577   -58.56445   -60.81058     0.00000    -0.00000    -0.00048
  Local  -28150.96613-28153.89772 28293.92816     0.00000    -0.00000     0.01017
  n-local   -17.11840   -16.69523   -14.49565    -0.15728     0.00306     0.00154
  augment    -1.67491    -1.66231    -1.53496    -0.00000     0.00000    -0.00003
  Kinetic   248.66856   241.50887   275.43988     2.65380    -0.04857    -0.01954
  Fock        0.00000     0.00000     0.00000     0.00000     0.00000     0.00000
  Total       6.33744    -2.61836     0.18472     0.00000     0.00000    -0.01530
  in kB      39.37957   -16.27000     1.14781     0.00000     0.00000    -0.09506

 VOLUME and BASIS-vectors are now :
  energy-cutoff  :      600.00
  volume of cell :      257.84
      direct lattice vectors                 reciprocal lattice vectors
     2.130360000 -1.230000000  0.000000000     0.234702116 -0.406504065  0.000000000
     2.130360000  1.230000000  0.000000000     0.234702116  0.406504065  0.000000000
     0.000000000  0.000000000 49.200000000     0.000000000  0.000000000  0.020325203

  length of vectors
     2.459945879  2.459945879 49.200000000     0.469393905  0.469393905  0.020325203

 FORCES acting on ions
    electron-ion (+dipol)            ewald-force                    non-local-force                 convergence-correction
   0.102E+01 -.544E-14 0.475E+03   0.319E-01 -.433E-14 -.475E+03   0.362E+00 0.278E-16 -.365E-02   0.128E-04 0.543E-15 0.754E-04
   -.102E+01 -.182E-13 0.475E+03   -.319E-01 0.126E-13 -.475E+03   -.358E+00 -.278E-16 -.341E-01   -.115E-04 -.639E-15 0.738E-04
   -.102E+01 -.111E-14 -.475E+03   -.319E-01 0.575E-14 0.475E+03   -.362E+00 -.555E-16 0.365E-02   -.128E-04 -.450E-15 -.754E-04
   0.102E+01 -.744E-14 -.475E+03   0.319E-01 0.216E-14 0.475E+03   0.358E+00 0.555E-16 0.341E-01   0.115E-04 0.520E-15 -.738E-04
   0.268E-07 -.322E-13 -.278E-04   -.307E-13 0.162E-13 0.000E+00   0.000E+00 0.000E+00 0.000E+00   0.169E-10 -.252E-16 0.347E-08

 POSITION                                       TOTAL-FORCE (eV/Angst)
      0.00000      0.00000      0.00000         1.412518      0.000000     -0.022255
      2.84062      0.00000      0.00000        -1.408090      0.000000     -0.053404
      0.00000      0.00000      3.46000        -1.412518      0.000000      0.022255
      1.42010      0.00000      3.46000         1.408090      0.000000      0.053404
    total drift:                                0.000000     -0.000000     -0.000028

  FREE ENERGIE OF THE ION-ELECTRON SYSTEM (eV)
  free  energy   TOTEN  =       -35.35691134 eV

  energy  without entropy=      -35.35168184  energy(sigma->0) =      -35.35429659

 writing wavefunctions