 vasp.5.4.4.18Apr17-6-g9f103f2a35 (build May 20 2018 16:52:39) complex

 executed on             LinuxIFC date 2022.10.31  00:13:19

 INCAR:
 POTCAR:    PAW Fe
 POTCAR:    PAW Fe
   VRHFIN =Fe:  d7 s1

   TITEL  = PAW Fe
   POMASS =   55.847; ZVAL   =    8.000    mass and valenz
   ENMAX  =  267.969; ENMIN  =  200.977 eV
   QCUT   =   -4.438; QGAM   =    8.876    optimization parameters

   Description
     l     E      TYP  RCUT    TYP  RCUT
     2   .000     23  2.300
     2   .000     23  2.300
     0   .000     23  2.300
     0   .000     23  2.300
     1  -.200     23  2.300
     1   .000     23  2.300
     3   .000      7   .000

  PAW Fe                                :

 POSCAR: Fe bulk bcc
  positions in direct lattice
 exchange correlation table for  LEXCH =        2
   RHO(1)=    0.500       N(1)  =     2000
   RHO(2)=  100.500       N(2)  =     4000

 ion  position               nearest neighbor table
   1  0.000  0.000  0.000-

  LATTYP: Found a body centered cubic cell.
 ALAT       =     2.6870000000

  Lattice vectors:

 A1 = (  -1.3435000000,   1.3435000000,   1.3435000000)
 A2 = (   1.3435000000,  -1.3435000000,   1.3435000000)
 A3 = (   1.3435000000,   1.3435000000,  -1.3435000000)

Analysis of symmetry for initial positions (statically):
 Subroutine PRICEL returns:
 Original cell was already a primitive cell.

 Routine SETGRP: Setting up the symmetry group for a
 body centered cubic supercell.

 Subroutine GETGRP returns: Found 48 space group operations
 (whereof 48 operations were pure point group operations)
 out of a pool of 48 trial point group operations.

The static configuration has the point symmetry O_h .

Analysis of symmetry for dynamics (positions and initial velocities):
 Subroutine PRICEL returns:
 Original cell was already a primitive cell.

 Routine SETGRP: Setting up the symmetry group for a
 body centered cubic supercell.

 Subroutine GETGRP returns: Found 48 space group operations
 (whereof 48 operations were pure point group operations)
 out of a pool of 48 trial point group operations.

The dynamic configuration has the point symmetry O_h .

 Subroutine INISYM returns: Found 48 space group operations
 (whereof 48 operations are pure point group operations),
 and found     1 'primitive' translations

 KPOINTS: 20x20x20

Automatic generation of k-mesh.
Space group operators:
 irot       det(A)        alpha          n_x          n_y          n_z        tau_x        tau_y        tau_z
    1     1.000000     0.000000     1.000000     0.000000     0.000000     0.000000     0.000000     0.000000
    2    -1.000000     0.000000     1.000000     0.000000     0.000000     0.000000     0.000000     0.000000
    3     1.000000   120.000000    -0.577350    -0.577350    -0.577350     0.000000     0.000000     0.000000
    4    -1.000000   120.000000    -0.577350    -0.577350    -0.577350     0.000000     0.000000     0.000000
    5     1.000000   120.000000     0.577350     0.577350     0.577350     0.000000     0.000000     0.000000
    6    -1.000000   120.000000     0.577350     0.577350     0.577350     0.000000     0.000000     0.000000
    7     1.000000    90.000000     0.000000     0.000000    -1.000000     0.000000     0.000000     0.000000
    8    -1.000000    90.000000     0.000000     0.000000    -1.000000     0.000000     0.000000     0.000000
    9     1.000000   180.000000     0.000000     0.707107     0.707107     0.000000     0.000000     0.000000
   10    -1.000000   180.000000     0.000000     0.707107     0.707107     0.000000     0.000000     0.000000
   11     1.000000    90.000000     0.000000     1.000000     0.000000     0.000000     0.000000     0.000000
   12    -1.000000    90.000000     0.000000     1.000000     0.000000     0.000000     0.000000     0.000000
   13     1.000000   180.000000     0.000000     0.000000     1.000000     0.000000     0.000000     0.000000
   14    -1.000000   180.000000     0.000000     0.000000     1.000000     0.000000     0.000000     0.000000
   15     1.000000   120.000000    -0.577350     0.577350     0.577350     0.000000     0.000000     0.000000
   16    -1.000000   120.000000    -0.577350     0.577350     0.577350     0.000000     0.000000     0.000000
   17     1.000000   120.000000    -0.577350     0.577350    -0.577350     0.000000     0.000000     0.000000
   18    -1.000000   120.000000    -0.577350     0.577350    -0.577350     0.000000     0.000000     0.000000
   19     1.000000    90.000000     0.000000     0.000000     1.000000     0.000000     0.000000     0.000000
   20    -1.000000    90.000000     0.000000     0.000000     1.000000     0.000000     0.000000     0.000000
   21     1.000000    90.000000    -1.000000     0.000000     0.000000     0.000000     0.000000     0.000000
   22    -1.000000    90.000000    -1.000000     0.000000     0.000000     0.000000     0.000000     0.000000
   23     1.000000   180.000000     0.707107     0.000000     0.707107     0.000000     0.000000     0.000000
   24    -1.000000   180.000000     0.707107     0.000000     0.707107     0.000000     0.000000     0.000000
   25     1.000000   120.000000     0.577350    -0.577350     0.577350     0.000000     0.000000     0.000000
   26    -1.000000   120.000000     0.577350    -0.577350     0.577350     0.000000     0.000000     0.000000
   27     1.000000   120.000000    -0.577350    -0.577350     0.577350     0.000000     0.000000     0.000000
   28    -1.000000   120.000000    -0.577350    -0.577350     0.577350     0.000000     0.000000     0.000000
   29     1.000000   180.000000     1.000000     0.000000     0.000000     0.000000     0.000000     0.000000
   30    -1.000000   180.000000     1.000000     0.000000     0.000000     0.000000     0.000000     0.000000
   31     1.000000    90.000000     0.000000    -1.000000     0.000000     0.000000     0.000000     0.000000
   32    -1.000000    90.000000     0.000000    -1.000000     0.000000     0.000000     0.000000     0.000000
   33     1.000000   180.000000     0.707107     0.707107     0.000000     0.000000     0.000000     0.000000
   34    -1.000000   180.000000     0.707107     0.707107     0.000000     0.000000     0.000000     0.000000
   35     1.000000    90.000000     1.000000     0.000000     0.000000     0.000000     0.000000     0.000000
   36    -1.000000    90.000000     1.000000     0.000000     0.000000     0.000000     0.000000     0.000000
   37     1.000000   120.000000     0.577350    -0.577350    -0.577350     0.000000     0.000000     0.000000
   38    -1.000000   120.000000     0.577350    -0.577350    -0.577350     0.000000     0.000000     0.000000
   39     1.000000   180.000000     0.000000     1.000000     0.000000     0.000000     0.000000     0.000000
   40    -1.000000   180.000000     0.000000     1.000000     0.000000     0.000000     0.000000     0.000000
   41     1.000000   120.000000     0.577350     0.577350    -0.577350     0.000000     0.000000     0.000000
   42    -1.000000   120.000000     0.577350     0.577350    -0.577350     0.000000     0.000000     0.000000
   43     1.000000   180.000000     0.000000    -0.707107     0.707107     0.000000     0.000000     0.000000
   44    -1.000000   180.000000     0.000000    -0.707107     0.707107     0.000000     0.000000     0.000000
   45     1.000000   180.000000     0.707107    -0.707107     0.000000     0.000000     0.000000     0.000000
   46    -1.000000   180.000000     0.707107    -0.707107     0.000000     0.000000     0.000000     0.000000
   47     1.000000   180.000000     0.707107     0.000000    -0.707107     0.000000     0.000000     0.000000
   48    -1.000000   180.000000     0.707107     0.000000    -0.707107     0.000000     0.000000     0.000000

 Subroutine IBZKPT returns following result:

 Found    250 irreducible k-points:

 Following reciprocal coordinates:
            Coordinates               Weight
  0.025000  0.025000  0.025000      8.000000
  0.075000  0.025000  0.025000     24.000000
  0.125000  0.025000  0.025000     24.000000
  0.175000  0.025000  0.025000     24.000000
  0.225000  0.025000  0.025000     24.000000
  0.275000  0.025000  0.025000     24.000000
  0.325000  0.025000  0.025000     24.000000
  0.375000  0.025000  0.025000     24.000000
  0.425000  0.025000  0.025000     24.000000
  0.475000  0.025000  0.025000     12.000000
 -0.025000  0.025000  0.025000      6.000000
  0.075000  0.075000  0.025000     24.000000
  0.125000  0.075000  0.025000     48.000000
  0.175000  0.075000  0.025000     48.000000
  0.225000  0.075000  0.025000     48.000000
  0.275000  0.075000  0.025000     48.000000
  0.325000  0.075000  0.025000     48.000000
  0.375000  0.075000  0.025000     48.000000
  0.425000  0.075000  0.025000     48.000000
 -0.075000  0.075000  0.025000     24.000000
  0.125000  0.125000  0.025000     24.000000
  0.175000  0.125000  0.025000     48.000000
  0.225000  0.125000  0.025000     48.000000
  0.275000  0.125000  0.025000     48.000000
  0.325000  0.125000  0.025000     48.000000
  0.375000  0.125000  0.025000     48.000000
  0.425000  0.125000  0.025000     24.000000
 -0.125000  0.125000  0.025000     24.000000
 -0.075000  0.125000  0.025000     24.000000
  0.175000  0.175000  0.025000     24.000000
  0.225000  0.175000  0.025000     48.000000
  0.275000  0.175000  0.025000     48.000000
  0.325000  0.175000  0.025000     48.000000
  0.375000  0.175000  0.025000     48.000000
 -0.175000  0.175000  0.025000     24.000000
 -0.125000  0.175000  0.025000     48.000000
  0.225000  0.225000  0.025000     24.000000
  0.275000  0.225000  0.025000     48.000000
  0.325000  0.225000  0.025000     48.000000
  0.375000  0.225000  0.025000     24.000000
 -0.225000  0.225000  0.025000     24.000000
 -0.175000  0.225000  0.025000     48.000000
 -0.125000  0.225000  0.025000     24.000000
  0.275000  0.275000  0.025000     24.000000
  0.325000  0.275000  0.025000     48.000000
 -0.275000  0.275000  0.025000     24.000000
 -0.225000  0.275000  0.025000     48.000000
 -0.175000  0.275000  0.025000     48.000000
  0.325000  0.325000  0.025000      8.000000
 -0.325000  0.325000  0.025000     24.000000
 -0.275000  0.325000  0.025000     48.000000
 -0.225000  0.325000  0.025000     48.000000
 -0.175000  0.325000  0.025000     24.000000
 -0.375000  0.375000  0.025000     24.000000
 -0.325000  0.375000  0.025000     48.000000
 -0.275000  0.375000  0.025000     48.000000
 -0.225000  0.375000  0.025000     48.000000
 -0.425000  0.425000  0.025000     24.000000
 -0.375000  0.425000  0.025000     48.000000
 -0.325000  0.425000  0.025000     48.000000
[...]
 -0.425000  0.425000  0.325000     24.000000
 -0.375000  0.425000  0.325000     24.000000
 -0.475000  0.475000  0.325000     24.000000
 -0.425000  0.475000  0.325000     48.000000
 -0.475000 -0.475000  0.325000     24.000000
 -0.425000 -0.475000  0.325000     24.000000
 -0.375000  0.375000  0.375000      6.000000
 -0.425000  0.425000  0.375000     24.000000
 -0.475000  0.475000  0.375000     24.000000
 -0.425000  0.475000  0.375000     24.000000
 -0.475000 -0.475000  0.375000     24.000000
 -0.425000  0.425000  0.425000      6.000000
 -0.475000  0.475000  0.425000     24.000000
[...]
 k-point 54 :  -0.3750 0.3750 0.0250  plane waves:      97
 k-point 55 :  -0.3250 0.3750 0.0250  plane waves:      98
 k-point 56 :  -0.2750 0.3750 0.0250  plane waves:      98
 k-point 57 :  -0.2250 0.3750 0.0250  plane waves:      96
 k-point 58 :  -0.4250 0.4250 0.0250  plane waves:      98
 k-point 59 :  -0.3750 0.4250 0.0250  plane waves:      95
 k-point 60 :  -0.3250 0.4250 0.0250  plane waves:      98
[...]
 k-point 85 :   0.4250 0.0750 0.0750  plane waves:      96
 k-point 86 :  -0.0750 0.0750 0.0750  plane waves:      87
 k-point 87 :   0.1250 0.1250 0.0750  plane waves:      96
 k-point 88 :   0.1750 0.1250 0.0750  plane waves:      97
 k-point 89 :   0.2250 0.1250 0.0750  plane waves:      97
 k-point 90 :   0.2750 0.1250 0.0750  plane waves:      94
 k-point 91 :   0.3250 0.1250 0.0750  plane waves:      94
 k-point 92 :   0.3750 0.1250 0.0750  plane waves:      95
 k-point 93 :  -0.1250 0.1250 0.0750  plane waves:      89
 k-point 94 :   0.1750 0.1750 0.0750  plane waves:      98
 k-point 95 :   0.2250 0.1750 0.0750  plane waves:      95
 k-point 96 :   0.2750 0.1750 0.0750  plane waves:      95
 k-point 97 :   0.3250 0.1750 0.0750  plane waves:      93
 k-point 98 :   0.3750 0.1750 0.0750  plane waves:      93
 k-point 99 :  -0.1750 0.1750 0.0750  plane waves:      93
 k-point ** :  -0.1250 0.1750 0.0750  plane waves:      92
 k-point ** :   0.2250 0.2250 0.0750  plane waves:      94
 k-point ** :   0.2750 0.2250 0.0750  plane waves:      93
 k-point ** :   0.3250 0.2250 0.0750  plane waves:      93
 k-point ** :  -0.2250 0.2250 0.0750  plane waves:      97
 k-point ** :  -0.1750 0.2250 0.0750  plane waves:      98
 k-point ** :   0.2750 0.2750 0.0750  plane waves:      93
 k-point ** :   0.3250 0.2750 0.0750  plane waves:      93
 k-point ** :  -0.2750 0.2750 0.0750  plane waves:     101
 k-point ** :  -0.2250 0.2750 0.0750  plane waves:     100
 k-point ** :  -0.1750 0.2750 0.0750  plane waves:      98
 k-point ** :  -0.3250 0.3250 0.0750  plane waves:     100
 k-point ** :  -0.2750 0.3250 0.0750  plane waves:      99
 k-point ** :  -0.2250 0.3250 0.0750  plane waves:      97
 k-point ** :  -0.3750 0.3750 0.0750  plane waves:      96
 k-point ** :  -0.3250 0.3750 0.0750  plane waves:      98
 k-point ** :  -0.2750 0.3750 0.0750  plane waves:      99
 k-point ** :  -0.2250 0.3750 0.0750  plane waves:      97
 k-point ** :  -0.4250 0.4250 0.0750  plane waves:      96
 k-point ** :  -0.3750 0.4250 0.0750  plane waves:      97
 k-point ** :  -0.3250 0.4250 0.0750  plane waves:      97
 k-point ** :  -0.2750 0.4250 0.0750  plane waves:      96
 k-point ** :  -0.4750 0.4750 0.0750  plane waves:      96
 k-point ** :  -0.4250 0.4750 0.0750  plane waves:      96
 k-point ** :  -0.3750 0.4750 0.0750  plane waves:      96
 k-point ** :  -0.3250 0.4750 0.0750  plane waves:      95
 k-point ** :  -0.2750 0.4750 0.0750  plane waves:      94
 k-point ** :  -0.4750-0.4750 0.0750  plane waves:      97
 k-point ** :  -0.4250-0.4750 0.0750  plane waves:      98
 k-point ** :  -0.3750-0.4750 0.0750  plane waves:      96
 k-point ** :  -0.3250-0.4750 0.0750  plane waves:      96
 k-point ** :  -0.4250-0.4250 0.0750  plane waves:      97
 k-point ** :  -0.3750-0.4250 0.0750  plane waves:      96
 k-point ** :  -0.3250-0.4250 0.0750  plane waves:      95
 k-point ** :  -0.3750-0.3750 0.0750  plane waves:      95
 k-point ** :   0.1250 0.1250 0.1250  plane waves:      95
 k-point ** :   0.1750 0.1250 0.1250  plane waves:      97
 k-point ** :   0.2250 0.1250 0.1250  plane waves:      93
 k-point ** :   0.2750 0.1250 0.1250  plane waves:      93
 k-point ** :   0.3250 0.1250 0.1250  plane waves:      91
 k-point ** :   0.3750 0.1250 0.1250  plane waves:      92
 k-point ** :  -0.1250 0.1250 0.1250  plane waves:      91
 k-point ** :   0.1750 0.1750 0.1250  plane waves:      95
 k-point ** :   0.2250 0.1750 0.1250  plane waves:      92
 k-point ** :   0.2750 0.1750 0.1250  plane waves:      93
 k-point ** :   0.3250 0.1750 0.1250  plane waves:      93
 k-point ** :  -0.1750 0.1750 0.1250  plane waves:      95
 k-point ** :   0.2250 0.2250 0.1250  plane waves:      94
 k-point ** :   0.2750 0.2250 0.1250  plane waves:      93
 k-point ** :   0.3250 0.2250 0.1250  plane waves:      93
 k-point ** :  -0.2250 0.2250 0.1250  plane waves:      97
 k-point ** :  -0.1750 0.2250 0.1250  plane waves:      95
 k-point ** :   0.2750 0.2750 0.1250  plane waves:      93
 k-point ** :  -0.2750 0.2750 0.1250  plane waves:      98
 k-point ** :  -0.2250 0.2750 0.1250  plane waves:      98
 k-point ** :  -0.3250 0.3250 0.1250  plane waves:      99
 k-point ** :  -0.2750 0.3250 0.1250  plane waves:      98
 k-point ** :  -0.2250 0.3250 0.1250  plane waves:      98
 k-point ** :  -0.3750 0.3750 0.1250  plane waves:      99
 k-point ** :  -0.3250 0.3750 0.1250  plane waves:      97
[...]
 k-point ** :  -0.4250 0.4250 0.3250  plane waves:     104
 k-point ** :  -0.3750 0.4250 0.3250  plane waves:     102
 k-point ** :  -0.4750 0.4750 0.3250  plane waves:     103
 k-point ** :  -0.4250 0.4750 0.3250  plane waves:     103
 k-point ** :  -0.4750-0.4750 0.3250  plane waves:     104
 k-point ** :  -0.4250-0.4750 0.3250  plane waves:     102
 k-point ** :  -0.3750 0.3750 0.3750  plane waves:     100
 k-point ** :  -0.4250 0.4250 0.3750  plane waves:     104
 k-point ** :  -0.4750 0.4750 0.3750  plane waves:     103
 k-point ** :  -0.4250 0.4750 0.3750  plane waves:     102
 k-point ** :  -0.4750-0.4750 0.3750  plane waves:     102
 k-point ** :  -0.4250 0.4250 0.4250  plane waves:     100
 k-point ** :  -0.4750 0.4750 0.4250  plane waves:     103
 k-point ** :  -0.4750-0.4750 0.4250  plane waves:      98
 k-point ** :  -0.4750 0.4750 0.4750  plane waves:     100

 maximum and minimum number of plane-waves per node :       104       86

 maximum number of plane-waves:       104
 maximum index in each direction:
   IXMAX=    3   IYMAX=    3   IZMAX=    3
   IXMIN=   -3   IYMIN=   -3   IZMIN=   -3

 serial   3D FFT for wavefunctions
 parallel 3D FFT for charge:
    minimum data exchange during FFTs selected (reduces bandwidth)

 Broyden mixing: mesh for mixing (old mesh)
   NGX =  7   NGY =  7   NGZ =  7
  (NGX  = 20   NGY  = 20   NGZ  = 20)
  gives a total of    343 points

 initial charge density was supplied:
 charge density of overlapping atoms calculated
 number of electron       8.0000000 magnetization
 keeping initial charge density in first step

 Maximum index for augmentation-charges         3527 (set IRDMAX)

 First call to EWALD:  gamma=   0.831
 Maximum number of real-space cells 3x 3x 3
 Maximum number of reciprocal cells 3x 3x 3

--------------------------------------- Iteration      1(   1)  ---------------------------------------

 eigenvalue-minimisations  :  4168
 total energy-change (2. order) : 0.3150941E+01  (-0.3035326E+03)
 number of electron       8.0000000 magnetization
 augmentation part        8.0000000 magnetization

 Free energy of the ion-electron system (eV)
  alpha Z        PSCENC =        69.03965965
  Ewald energy   TEWEN  =      -624.09154735
  -Hartree energ DENC   =       -99.17660430
  -exchange      EXHF   =         0.00000000
  -V(xc)+E(xc)   XCENC  =         4.86345274
  PAW double counting   =       479.09899362     -488.38466797
  entropy T*S    EENTRO =        -0.00076172
  eigenvalues    EBANDS =        64.47206442
  atomic energy  EATOM  =       597.33035224
  Solvation  Ediel_sol  =         0.00000000
  free energy    TOTEN  =         3.15094133 eV

  energy without entropy =        3.15170305  energy(sigma->0) =        3.15119524

[...]

 eigenvalue-minimisations  :  4120
 total energy-change (2. order) :-0.1353206E+02  (-0.1302976E+02)
 number of electron       8.0000000 magnetization
 augmentation part        8.0000000 magnetization

[...]

 Broyden mixing:
  rms(total) = 0.85314E+00    rms(broyden)= 0.85290E+00
  rms(prec ) = 0.35050E+01
  weight for this iteration     100.00

[...]

 eigenvalues of (default mixing * dielectric matrix)
  average eigenvalue GAMMA=   0.9069
  0.9069

[...]

 average (electrostatic) potential at core
  the test charge radii are     1.0103
  (the norm of the test charge is              1.0000)
       1 -42.5454

 E-fermi :   7.5031     XC(G=0): -14.3589     alpha+bet :-15.8936

 k-point     1 :       0.0250    0.0250    0.0250
  band No.  band energies     occupation
      1      -1.6238      2.00000
      2       5.4545      2.00000
      3       5.4545      2.00000
      4       5.6253      2.00000
      5       7.3964      1.77591
      6       7.3964      1.77591
      7      33.4019      0.00000
      8      33.4019      0.00000

[...]

 soft charge-density along one line, spin component           1
         0         1         2         3         4         5         6         7         8         9
 total charge-density along one line

------------------------ aborting loop because EDIFF is reached ----------------------------------------

  FORCE on cell =-STRESS in cart. coord.  units (eV):
  Direction    XX          YY          ZZ          XY          YZ          ZX
  Alpha Z    69.03966    69.03966    69.03966
  Ewald    -208.03051  -208.03051  -208.03051    -0.00000     0.00000     0.00000
  Hartree    27.59878    27.59878    27.59878    -0.00000    -0.00000    -0.00000
  E(xc)     -39.37826   -39.37826   -39.37826     0.00000     0.00000     0.00000
  Local      62.88671    62.88671    62.88671    -0.00000    -0.00000    -0.00000
  n-local   -27.66620   -24.95987   -24.67082     0.54729    -1.61933    -1.66534
  augment    37.38660    37.38660    37.38660    -0.00002    -0.00002    -0.00002
  Kinetic    75.86201    77.68935    75.08630     1.20792     2.55956     0.67621
  Fock        0.00000     0.00000     0.00000     0.00000     0.00000     0.00000
  Total      -0.05009    -0.05009    -0.05009    -0.00000    -0.00000     0.00000
  in kB      -8.27317    -8.27317    -8.27317    -0.00000    -0.00000     0.00000

 VOLUME and BASIS-vectors are now :
  energy-cutoff  :      267.97
  volume of cell :        9.70
      direct lattice vectors                 reciprocal lattice vectors
    -1.343500000  1.343500000  1.343500000     0.000000000  0.372162263  0.372162263
     1.343500000 -1.343500000  1.343500000     0.372162263  0.000000000  0.372162263
     1.343500000  1.343500000 -1.343500000     0.372162263  0.372162263  0.000000000

[...]

 FORCES acting on ions
    electron-ion (+dipol)            ewald-force                    non-local-force                 convergence-correction
   0.326E-14 0.757E-14 0.101E-13   -.583E-15 -.304E-14 -.304E-14   0.155E-24 0.000E+00 -.258E-24   0.177E-13 0.629E-14 0.836E-14
   0.326E-14 0.757E-14 0.101E-13   -.583E-15 -.304E-14 -.304E-14   0.155E-24 0.000E+00 -.258E-24   0.177E-13 0.629E-14 0.836E-14

 POSITION                                       TOTAL-FORCE (eV/Angst)
      0.00000      0.00000      0.00000        -0.000000     -0.000000      0.000000
    total drift:                                0.000000      0.000000      0.000000

  FREE ENERGIE OF THE ION-ELECTRON SYSTEM (eV)
  free  energy   TOTEN  =        -8.98786304 eV

  energy  without entropy=       -8.98918579  energy(sigma->0) =       -8.98830395

[...]

 d Force = 0.0000000E+00[ 0.000E+00, 0.000E+00]  d Energy =-0.2586899E-03 0.259E-03
 d Force = 0.0000000E+00[ 0.000E+00, 0.000E+00]  d Ewald  = 0.1511697E+01-0.151E+01

 Steepest descent step on ions:
 trial-energy change:    0.000259  1 .order    0.000232   -0.000363    0.000828
  (g-gl).g = 0.363E-03      g.g   = 0.363E-03  gl.gl    = 0.000E+00
 g(Force)  = 0.199E-62   g(Stress)= 0.363E-03 ortho     = 0.000E+00
 gamma     =   0.00000
 trial     =   1.00000
 opt step  =   0.27828  (harmonic =   0.30486) maximal distance =0.00000000
 next E    =    -8.987913   (d E  =  -0.00005)

[...]

 eigenvalue-minimisations  :  4000
 total energy-change (2. order) :-0.2207574E-02  (-0.5230153E-02)
 number of electron       7.9999899 magnetization
 augmentation part        4.1256249 magnetization

[...]

 Broyden mixing:
  rms(total) = 0.31753E-03    rms(broyden)= 0.31621E-03
  rms(prec ) = 0.10938E-02
  weight for this iteration     100.00

 eigenvalues of (default mixing * dielectric matrix)
  average eigenvalue GAMMA=   1.4633
  0.7946  1.0920  2.5032

[...]

--------------------------------------- Iteration      3(   5)  ---------------------------------------

 eigenvalue-minimisations  :  2408
 total energy-change (2. order) : 0.1973735E-06  (-0.2152707E-07)
 number of electron       7.9999899 magnetization
 augmentation part        4.1057419 magnetization

 Free energy of the ion-electron system (eV)
  alpha Z        PSCENC =        69.17911825
  Ewald energy   TEWEN  =      -624.51148182
  -Hartree energ DENC   =       -82.66073580
  -exchange      EXHF   =         0.00000000
  -V(xc)+E(xc)   XCENC  =         3.97834427
  PAW double counting   =       551.94780224     -562.64328493
  entropy T*S    EENTRO =         0.00132617
  eigenvalues    EBANDS =        38.39064271
  atomic energy  EATOM  =       597.33035224
  Solvation  Ediel_sol  =         0.00000000
  free energy    TOTEN  =        -8.98791667 eV

  energy without entropy =       -8.98924284  energy(sigma->0) =       -8.98835873

 average (electrostatic) potential at core
  the test charge radii are     1.0103
  (the norm of the test charge is              1.0000)
       1 -42.5223

 E-fermi :   7.5287     XC(G=0): -14.3707     alpha+bet :-15.9257

[...]

 k-point   250 :      -0.4750    0.4750    0.4750
  band No.  band energies     occupation
      1       2.2946      2.00000
      2       2.2960      2.00000
      3       8.6589     -0.00000
      4       8.6590     -0.00000
      5       8.7121     -0.00000
      6      18.3692      0.00000
      7      18.8674      0.00000
      8      18.8674      0.00000

 soft charge-density along one line, spin component           1
         0         1         2         3         4         5         6         7         8         9
 total charge-density along one line

------------------------ aborting loop because EDIFF is reached ----------------------------------------

  FORCE on cell =-STRESS in cart. coord.  units (eV):
  Direction    XX          YY          ZZ          XY          YZ          ZX
  Alpha Z    69.17912    69.17912    69.17912
  Ewald    -208.17049  -208.17049  -208.17049     0.00000    -0.00000    -0.00000
  Hartree    27.55093    27.55093    27.55093    -0.00000    -0.00000    -0.00000
  E(xc)     -39.39064   -39.39064   -39.39064     0.00000     0.00000     0.00000
  Local      62.93533    62.93533    62.93533    -0.00000    -0.00000    -0.00000
  n-local   -27.62261   -24.91098   -24.62407     0.55517    -1.62162    -1.67113
  augment    37.37786    37.37786    37.37786    -0.00001    -0.00001    -0.00001
  Kinetic    75.88654    77.71903    75.11471     1.20759     2.56033     0.67602
  Fock        0.00000     0.00000     0.00000     0.00000     0.00000     0.00000
  Total       0.00297     0.00297     0.00297    -0.00000     0.00000    -0.00000
  in kB       0.49199     0.49199     0.49199    -0.00000     0.00000    -0.00000

 VOLUME and BASIS-vectors are now :
  energy-cutoff  :      267.97
  volume of cell :        9.68
      direct lattice vectors                 reciprocal lattice vectors
    -1.342596603  1.342596603  1.342596603     0.000000000  0.372412681  0.372412681
     1.342596603 -1.342596603  1.342596603     0.372412681  0.000000000  0.372412681
     1.342596603  1.342596603 -1.342596603     0.372412681  0.372412681  0.000000000

  length of vectors
     2.325445530  2.325445530  2.325445530     0.526671064  0.526671064  0.526671064

 FORCES acting on ions
    electron-ion (+dipol)            ewald-force                    non-local-force                 convergence-correction
   0.987E-14 0.682E-14 0.122E-13   -.703E-15 -.456E-14 -.113E-14   0.000E+00 0.000E+00 0.000E+00   0.318E-14 0.124E-13 0.723E-14
   0.987E-14 0.682E-14 0.122E-13   -.703E-15 -.456E-14 -.113E-14   0.000E+00 0.000E+00 0.000E+00   0.318E-14 0.124E-13 0.723E-14

 POSITION                                       TOTAL-FORCE (eV/Angst)
     -0.00000     -0.00000      0.00000         0.000000      0.000000      0.000000
    total drift:                                0.000000      0.000000      0.000000

  FREE ENERGIE OF THE ION-ELECTRON SYSTEM (eV)
  free  energy   TOTEN  =        -8.98791667 eV

  energy  without entropy=       -8.98924284  energy(sigma->0) =       -8.98835873

 d Force = 0.0000000E+00[ 0.000E+00, 0.000E+00]  d Energy = 0.3123275E-03-0.312E-03
 d Force = 0.0000000E+00[ 0.000E+00, 0.000E+00]  d Ewald  =-0.1091762E+01 0.109E+01

 reached required accuracy - stopping structural energy minimisation