 vasp.5.4.4.18Apr17-6-g9f103f2a35 (build May 20 2018 16:52:39) complex

 executed on             LinuxIFC date 2022.11.13  21:45:41

 INCAR:
 POTCAR:   PAW_GGA Mo 08Jan2002
 POTCAR:   PAW_GGA S 21Jan2003
 POTCAR:   PAW_GGA Mo 08Jan2002
   VRHFIN =Mo: 4p5s4d

   TITEL  = PAW_GGA Mo 08Jan2002
   POMASS =   95.940; ZVAL   =    6.000    mass and valenz
   ENMAX  =  224.580; ENMIN  =  168.435 eV
   QCUT   =   -4.063; QGAM   =    8.126    optimization parameters

   Description
     l     E      TYP  RCUT    TYP  RCUT
     2   .000     23  2.500
     2   .000     23  2.500
     0   .000     23  2.600
     0  1.000     23  2.600
     1   .400     23  2.750
     1  2.000     23  2.750
     3   .000      7   .000

 POTCAR:   PAW_GGA S 21Jan2003
   VRHFIN =S : s2p4

   TITEL  = PAW_GGA S 21Jan2003
   POMASS =   32.066; ZVAL   =    6.000    mass and valenz
   ENMAX  =  280.000; ENMIN  =  194.015 eV
   QCUT   =   -4.360; QGAM   =    8.721    optimization parameters

   Description
     l     E      TYP  RCUT    TYP  RCUT
     0   .000     23  1.900
     0   .000     23  1.900
     1   .000     23  1.900
     1   .000     23  1.900
     2   .000      7  1.900

 PAW_GGA Mo 08Jan2002                   :
 PAW_GGA S 21Jan2003                    :

 POSCAR: Mo2S4
  positions in direct lattice
 exchange correlation table for  LEXCH =        7
   RHO(1)=    0.500       N(1)  =     2000
   RHO(2)=  100.500       N(2)  =     4000

 ion  position               nearest neighbor table
   1  0.333  0.667  0.250-   3 2.42   5 2.42   3 2.42   5 2.42   3 2.42   5 2.42
   2  0.667  0.333  0.750-   4 2.42   6 2.42   4 2.42   6 2.42   4 2.42   6 2.42
   3  0.667  0.333  0.355-   1 2.42   1 2.42   1 2.42
   4  0.333  0.667  0.855-   2 2.42   2 2.42   2 2.42
   5  0.667  0.333  0.145-   1 2.42   1 2.42   1 2.42
   6  0.333  0.667  0.645-   2 2.42   2 2.42   2 2.42

  LATTYP: Found a hexagonal cell.
 ALAT       =     3.1903153920
 C/A-ratio  =     4.6638034714

  Lattice vectors:

 A1 = (   3.1903160000,   0.0000000000,   0.0000000000)
 A2 = (  -1.5951580000,   2.7628940000,   0.0000000000)
 A3 = (   0.0000000000,   0.0000000000,  14.8790040000)

Analysis of symmetry for initial positions (statically):
 Subroutine PRICEL returns:
 Original cell was already a primitive cell.

 Routine SETGRP: Setting up the symmetry group for a
 hexagonal supercell.

 Subroutine GETGRP returns: Found 24 space group operations
 (whereof 12 operations were pure point group operations)
 out of a pool of 24 trial point group operations.

The static configuration has the point symmetry D_3d.
 The point group associated with its full space group is D_6h.

Analysis of symmetry for dynamics (positions and initial velocities):
 Subroutine PRICEL returns:
 Original cell was already a primitive cell.

 Routine SETGRP: Setting up the symmetry group for a
 hexagonal supercell.

 Subroutine GETGRP returns: Found 24 space group operations
 (whereof 12 operations were pure point group operations)
 out of a pool of 24 trial point group operations.

The dynamic configuration has the point symmetry D_3d.
 The point group associated with its full space group is D_6h.

 Subroutine INISYM returns: Found 24 space group operations
 (whereof 12 operations are pure point group operations),
 and found     1 'primitive' translations

 KPOINTS: 30x30x30 Gamma-centered

Automatic generation of k-mesh.
Space group operators:
 irot       det(A)        alpha          n_x          n_y          n_z        tau_x        tau_y        tau_z
    1     1.000000     0.000000     1.000000     0.000000     0.000000     0.000000     0.000000     0.000000
    2    -1.000000     0.000000     1.000000     0.000000     0.000000     0.000000     0.000000     0.000000
    3     1.000000   120.000000     0.000000     0.000000    -1.000000     0.000000     0.000000     0.000000
    4    -1.000000   120.000000     0.000000     0.000000    -1.000000     0.000000     0.000000     0.000000
    5     1.000000   120.000000     0.000000     0.000000     1.000000     0.000000     0.000000     0.000000
    6    -1.000000   120.000000     0.000000     0.000000     1.000000     0.000000     0.000000     0.000000
    7     1.000000   180.000000     1.000000     0.000000     0.000000     0.000000     0.000000     0.000000
    8    -1.000000   180.000000     1.000000     0.000000     0.000000     0.000000     0.000000     0.000000
    9     1.000000   180.000000     0.500000    -0.866025     0.000000     0.000000     0.000000     0.000000
   10    -1.000000   180.000000     0.500000    -0.866025     0.000000     0.000000     0.000000     0.000000
   11     1.000000   180.000000    -0.500000    -0.866025     0.000000     0.000000     0.000000     0.000000
   12    -1.000000   180.000000    -0.500000    -0.866025     0.000000     0.000000     0.000000     0.000000
   13     1.000000    60.000000     0.000000     0.000000    -1.000000     0.000001     0.000000     0.500000
   14    -1.000000    60.000000     0.000000     0.000000    -1.000000     0.000001     0.000000     0.500000
   15     1.000000   180.000000     0.000000     0.000000     1.000000     0.000000     0.000000     0.500000
   16    -1.000000   180.000000     0.000000     0.000000     1.000000     0.000000     0.000000     0.500000
   17     1.000000    60.000000     0.000000     0.000000     1.000000     0.000000     0.000000     0.500000
   18    -1.000000    60.000000     0.000000     0.000000     1.000000     0.000000     0.000000     0.500000
   19     1.000000   180.000000     0.866025    -0.500000     0.000000     0.000000     0.000000     0.500000
   20    -1.000000   180.000000     0.866025    -0.500000     0.000000     0.000000     0.000000     0.500000
   21     1.000000   180.000000     0.000000     1.000000     0.000000     0.000001     0.000000     0.500000
   22    -1.000000   180.000000     0.000000     1.000000     0.000000     0.000001     0.000000     0.500000
   23     1.000000   180.000000     0.866025     0.500000     0.000000     0.000000     0.000000     0.500000
   24    -1.000000   180.000000     0.866025     0.500000     0.000000     0.000000     0.000000     0.500000

 Subroutine IBZKPT returns following result:

 Found   1456 irreducible k-points:

 Following reciprocal coordinates:
            Coordinates               Weight
  0.000000  0.000000  0.000000      1.000000
  0.033333  0.000000  0.000000      6.000000
  0.066667  0.000000  0.000000      6.000000
  0.100000  0.000000  0.000000      6.000000
  0.133333  0.000000  0.000000      6.000000
  0.166667  0.000000  0.000000      6.000000
  0.200000  0.000000  0.000000      6.000000
  0.233333  0.000000  0.000000      6.000000
  0.266667  0.000000  0.000000      6.000000
  0.300000  0.000000  0.000000      6.000000
  0.333333  0.000000  0.000000      6.000000
  0.366667  0.000000  0.000000      6.000000
  0.400000  0.000000  0.000000      6.000000
  0.433333  0.000000  0.000000      6.000000
  0.466667  0.000000  0.000000      6.000000
  0.500000  0.000000  0.000000      3.000000
  0.033333  0.033333  0.000000      6.000000
  0.066667  0.033333  0.000000     12.000000
  0.100000  0.033333  0.000000     12.000000
  0.133333  0.033333  0.000000     12.000000
  0.166667  0.033333  0.000000     12.000000
  0.200000  0.033333  0.000000     12.000000
  0.233333  0.033333  0.000000     12.000000
  0.266667  0.033333  0.000000     12.000000
  0.300000  0.033333  0.000000     12.000000
  0.333333  0.033333  0.000000     12.000000
  0.366667  0.033333  0.000000     12.000000
  0.400000  0.033333  0.000000     12.000000
  0.433333  0.033333  0.000000     12.000000
  0.466667  0.033333  0.000000     12.000000
  0.066667  0.066667  0.000000      6.000000
  0.100000  0.066667  0.000000     12.000000
  0.133333  0.066667  0.000000     12.000000
  0.166667  0.066667  0.000000     12.000000
  0.200000  0.066667  0.000000     12.000000
  0.233333  0.066667  0.000000     12.000000
  0.266667  0.066667  0.000000     12.000000
  0.300000  0.066667  0.000000     12.000000
  0.333333  0.066667  0.000000     12.000000
  0.366667  0.066667  0.000000     12.000000
  0.400000  0.066667  0.000000     12.000000
  0.433333  0.066667  0.000000     12.000000
  0.466667  0.066667  0.000000      6.000000
  0.100000  0.100000  0.000000      6.000000
  0.133333  0.100000  0.000000     12.000000
  0.166667  0.100000  0.000000     12.000000
  0.200000  0.100000  0.000000     12.000000
  0.233333  0.100000  0.000000     12.000000
  0.266667  0.100000  0.000000     12.000000
  0.300000  0.100000  0.000000     12.000000
  0.333333  0.100000  0.000000     12.000000
  0.366667  0.100000  0.000000     12.000000
  0.400000  0.100000  0.000000     12.000000
  0.433333  0.100000  0.000000     12.000000
  0.133333  0.133333  0.000000      6.000000
  0.166667  0.133333  0.000000     12.000000
  0.200000  0.133333  0.000000     12.000000
  0.233333  0.133333  0.000000     12.000000
  0.266667  0.133333  0.000000     12.000000
  0.300000  0.133333  0.000000     12.000000
[...]
  0.333333  0.200000  0.500000     12.000000
  0.366667  0.200000  0.500000     12.000000
  0.400000  0.200000  0.500000      6.000000
  0.233333  0.233333  0.500000      6.000000
  0.266667  0.233333  0.500000     12.000000
  0.300000  0.233333  0.500000     12.000000
  0.333333  0.233333  0.500000     12.000000
  0.366667  0.233333  0.500000     12.000000
  0.266667  0.266667  0.500000      6.000000
  0.300000  0.266667  0.500000     12.000000
  0.333333  0.266667  0.500000     12.000000
  0.366667  0.266667  0.500000      6.000000
  0.300000  0.300000  0.500000      6.000000
  0.333333  0.300000  0.500000     12.000000
  0.333333  0.333333  0.500000      2.000000

 Following cartesian coordinates:
            Coordinates               Weight
  0.000000  0.000000  0.000000      1.000000
  0.010448  0.006032  0.000000      6.000000
  0.020897  0.012065  0.000000      6.000000
  0.031345  0.018097  0.000000      6.000000
  0.041793  0.024129  0.000000      6.000000
  0.052241  0.030162  0.000000      6.000000
  0.062690  0.036194  0.000000      6.000000
  0.073138  0.042226  0.000000      6.000000
  0.083586  0.048259  0.000000      6.000000
  0.094035  0.054291  0.000000      6.000000
  0.104483  0.060323  0.000000      6.000000
  0.114931  0.066356  0.000000      6.000000
  0.125379  0.072388  0.000000      6.000000
  0.135828  0.078420  0.000000      6.000000
  0.146276  0.084453  0.000000      6.000000
  0.156724  0.090485  0.000000      3.000000
  0.010448  0.018097  0.000000      6.000000
  0.020897  0.024129  0.000000     12.000000
  0.031345  0.030162  0.000000     12.000000
  0.041793  0.036194  0.000000     12.000000
  0.052241  0.042226  0.000000     12.000000
  0.062690  0.048259  0.000000     12.000000
  0.073138  0.054291  0.000000     12.000000
  0.083586  0.060323  0.000000     12.000000
  0.094035  0.066356  0.000000     12.000000
  0.104483  0.072388  0.000000     12.000000
  0.114931  0.078420  0.000000     12.000000
  0.125379  0.084453  0.000000     12.000000
  0.135828  0.090485  0.000000     12.000000
  0.146276  0.096517  0.000000     12.000000
  0.020897  0.036194  0.000000      6.000000
[...]
 k-point 33 :   0.1333 0.0667 0.0000  plane waves:    3310
 k-point 34 :   0.1667 0.0667 0.0000  plane waves:    3307
 k-point 35 :   0.2000 0.0667 0.0000  plane waves:    3316
 k-point 36 :   0.2333 0.0667 0.0000  plane waves:    3327
 k-point 37 :   0.2667 0.0667 0.0000  plane waves:    3337
 k-point 38 :   0.3000 0.0667 0.0000  plane waves:    3343
 k-point 39 :   0.3333 0.0667 0.0000  plane waves:    3343
 k-point 40 :   0.3667 0.0667 0.0000  plane waves:    3352
 k-point 41 :   0.4000 0.0667 0.0000  plane waves:    3358
 k-point 42 :   0.4333 0.0667 0.0000  plane waves:    3345
 k-point 43 :   0.4667 0.0667 0.0000  plane waves:    3338
 k-point 44 :   0.1000 0.1000 0.0000  plane waves:    3320
 k-point 45 :   0.1333 0.1000 0.0000  plane waves:    3318
 k-point 46 :   0.1667 0.1000 0.0000  plane waves:    3313
 k-point 47 :   0.2000 0.1000 0.0000  plane waves:    3313
 k-point 48 :   0.2333 0.1000 0.0000  plane waves:    3330
 k-point 49 :   0.2667 0.1000 0.0000  plane waves:    3333
 k-point 50 :   0.3000 0.1000 0.0000  plane waves:    3341
 k-point 51 :   0.3333 0.1000 0.0000  plane waves:    3351
 k-point 52 :   0.3667 0.1000 0.0000  plane waves:    3347
 k-point 53 :   0.4000 0.1000 0.0000  plane waves:    3347
 k-point 54 :   0.4333 0.1000 0.0000  plane waves:    3334
 k-point 55 :   0.1333 0.1333 0.0000  plane waves:    3314
 k-point 56 :   0.1667 0.1333 0.0000  plane waves:    3309
 k-point 57 :   0.2000 0.1333 0.0000  plane waves:    3328
 k-point 58 :   0.2333 0.1333 0.0000  plane waves:    3340
 k-point 59 :   0.2667 0.1333 0.0000  plane waves:    3341
 k-point 60 :   0.3000 0.1333 0.0000  plane waves:    3331
[...]
 k-point 85 :   0.2667 0.2667 0.0000  plane waves:    3334
 k-point 86 :   0.3000 0.2667 0.0000  plane waves:    3311
 k-point 87 :   0.3333 0.2667 0.0000  plane waves:    3315
 k-point 88 :   0.3667 0.2667 0.0000  plane waves:    3318
 k-point 89 :   0.3000 0.3000 0.0000  plane waves:    3318
 k-point 90 :   0.3333 0.3000 0.0000  plane waves:    3321
 k-point 91 :   0.3333 0.3333 0.0000  plane waves:    3324
 k-point 92 :   0.0000 0.0000 0.0333  plane waves:    3313
 k-point 93 :   0.0333 0.0000 0.0333  plane waves:    3308
 k-point 94 :   0.0667 0.0000 0.0333  plane waves:    3315
 k-point 95 :   0.1000 0.0000 0.0333  plane waves:    3310
 k-point 96 :   0.1333 0.0000 0.0333  plane waves:    3315
 k-point 97 :   0.1667 0.0000 0.0333  plane waves:    3308
 k-point 98 :   0.2000 0.0000 0.0333  plane waves:    3313
 k-point 99 :   0.2333 0.0000 0.0333  plane waves:    3325
 k-point ** :   0.2667 0.0000 0.0333  plane waves:    3324
 k-point ** :   0.3000 0.0000 0.0333  plane waves:    3334
 k-point ** :   0.3333 0.0000 0.0333  plane waves:    3355
 k-point ** :   0.3667 0.0000 0.0333  plane waves:    3346
 k-point ** :   0.4000 0.0000 0.0333  plane waves:    3352
 k-point ** :   0.4333 0.0000 0.0333  plane waves:    3346
 k-point ** :   0.4667 0.0000 0.0333  plane waves:    3344
 k-point ** :   0.5000 0.0000 0.0333  plane waves:    3330
 k-point ** :   0.0333 0.0333 0.0333  plane waves:    3306
 k-point ** :   0.0667 0.0333 0.0333  plane waves:    3314
 k-point ** :   0.1000 0.0333 0.0333  plane waves:    3311
 k-point ** :   0.1333 0.0333 0.0333  plane waves:    3316
 k-point ** :   0.1667 0.0333 0.0333  plane waves:    3311
 k-point ** :   0.2000 0.0333 0.0333  plane waves:    3318
 k-point ** :   0.2333 0.0333 0.0333  plane waves:    3325
 k-point ** :   0.2667 0.0333 0.0333  plane waves:    3330
 k-point ** :   0.3000 0.0333 0.0333  plane waves:    3343
 k-point ** :   0.3333 0.0333 0.0333  plane waves:    3347
 k-point ** :   0.3667 0.0333 0.0333  plane waves:    3347
 k-point ** :   0.4000 0.0333 0.0333  plane waves:    3352
 k-point ** :   0.4333 0.0333 0.0333  plane waves:    3348
 k-point ** :   0.4667 0.0333 0.0333  plane waves:    3344
 k-point ** :   0.0667 0.0667 0.0333  plane waves:    3319
 k-point ** :   0.1000 0.0667 0.0333  plane waves:    3311
 k-point ** :   0.1333 0.0667 0.0333  plane waves:    3313
 k-point ** :   0.1667 0.0667 0.0333  plane waves:    3310
 k-point ** :   0.2000 0.0667 0.0333  plane waves:    3313
 k-point ** :   0.2333 0.0667 0.0333  plane waves:    3326
 k-point ** :   0.2667 0.0667 0.0333  plane waves:    3336
 k-point ** :   0.3000 0.0667 0.0333  plane waves:    3340
 k-point ** :   0.3333 0.0667 0.0333  plane waves:    3342
 k-point ** :   0.3667 0.0667 0.0333  plane waves:    3348
 k-point ** :   0.4000 0.0667 0.0333  plane waves:    3356
 k-point ** :   0.4333 0.0667 0.0333  plane waves:    3345
 k-point ** :   0.4667 0.0667 0.0333  plane waves:    3340
 k-point ** :   0.1000 0.1000 0.0333  plane waves:    3320
 k-point ** :   0.1333 0.1000 0.0333  plane waves:    3316
 k-point ** :   0.1667 0.1000 0.0333  plane waves:    3312
 k-point ** :   0.2000 0.1000 0.0333  plane waves:    3316
 k-point ** :   0.2333 0.1000 0.0333  plane waves:    3330
 k-point ** :   0.2667 0.1000 0.0333  plane waves:    3336
 k-point ** :   0.3000 0.1000 0.0333  plane waves:    3342
 k-point ** :   0.3333 0.1000 0.0333  plane waves:    3346
 k-point ** :   0.3667 0.1000 0.0333  plane waves:    3347
 k-point ** :   0.4000 0.1000 0.0333  plane waves:    3344
 k-point ** :   0.4333 0.1000 0.0333  plane waves:    3335
 k-point ** :   0.1333 0.1333 0.0333  plane waves:    3315
 k-point ** :   0.1667 0.1333 0.0333  plane waves:    3306
 k-point ** :   0.2000 0.1333 0.0333  plane waves:    3330
 k-point ** :   0.2333 0.1333 0.0333  plane waves:    3334
 k-point ** :   0.2667 0.1333 0.0333  plane waves:    3339
 k-point ** :   0.3000 0.1333 0.0333  plane waves:    3333
 k-point ** :   0.3333 0.1333 0.0333  plane waves:    3332
 k-point ** :   0.3667 0.1333 0.0333  plane waves:    3336
 k-point ** :   0.4000 0.1333 0.0333  plane waves:    3339
 k-point ** :   0.4333 0.1333 0.0333  plane waves:    3336
 k-point ** :   0.1667 0.1667 0.0333  plane waves:    3327
 k-point ** :   0.2000 0.1667 0.0333  plane waves:    3336
 k-point ** :   0.2333 0.1667 0.0333  plane waves:    3329
 k-point ** :   0.2667 0.1667 0.0333  plane waves:    3335
[...]
 k-point ** :   0.3333 0.2000 0.5000  plane waves:    3328
 k-point ** :   0.3667 0.2000 0.5000  plane waves:    3326
 k-point ** :   0.4000 0.2000 0.5000  plane waves:    3320
 k-point ** :   0.2333 0.2333 0.5000  plane waves:    3342
 k-point ** :   0.2667 0.2333 0.5000  plane waves:    3334
 k-point ** :   0.3000 0.2333 0.5000  plane waves:    3334
 k-point ** :   0.3333 0.2333 0.5000  plane waves:    3330
 k-point ** :   0.3667 0.2333 0.5000  plane waves:    3332
 k-point ** :   0.2667 0.2667 0.5000  plane waves:    3330
 k-point ** :   0.3000 0.2667 0.5000  plane waves:    3326
 k-point ** :   0.3333 0.2667 0.5000  plane waves:    3336
 k-point ** :   0.3667 0.2667 0.5000  plane waves:    3330
 k-point ** :   0.3000 0.3000 0.5000  plane waves:    3344
 k-point ** :   0.3333 0.3000 0.5000  plane waves:    3322
 k-point ** :   0.3333 0.3333 0.5000  plane waves:    3300

 maximum and minimum number of plane-waves per node :      3363     3298

 maximum number of plane-waves:      3363
 maximum index in each direction:
   IXMAX=    5   IYMAX=    5   IZMAX=   27
   IXMIN=   -6   IYMIN=   -6   IZMIN=  -27

 serial   3D FFT for wavefunctions
 parallel 3D FFT for charge:
    minimum data exchange during FFTs selected (reduces bandwidth)

 Broyden mixing: mesh for mixing (old mesh)
   NGX = 11   NGY = 11   NGZ = 55
  (NGX  = 36   NGY  = 36   NGZ  =168)
  gives a total of   6655 points

 initial charge density was supplied:
 charge density of overlapping atoms calculated
 number of electron      36.0000000 magnetization
 keeping initial charge density in first step

 Maximum index for augmentation-charges        12837 (set IRDMAX)

 First call to EWALD:  gamma=   0.349
 Maximum number of real-space cells 5x 5x 1
 Maximum number of reciprocal cells 2x 2x 7

--------------------------------------- Iteration      1(   1)  ---------------------------------------

 BZINTS: Fermi energy: 15.154207; 36.000000 electrons
         Band energy: 187.264994;  BLOECHL correction: -0.212436

 eigenvalue-minimisations  : 64064
 total energy-change (2. order) : 0.2116299E+03  (-0.1557642E+04)
 number of electron      36.0000000 magnetization
 augmentation part       36.0000000 magnetization

 Free energy of the ion-electron system (eV)
  alpha Z        PSCENC =        80.02335958
  Ewald energy   TEWEN  =     -1146.88908035
  -Hartree energ DENC   =      -535.52593939
  -exchange      EXHF   =         0.00000000
  -V(xc)+E(xc)   XCENC  =       -74.01749475
  PAW double counting   =       816.00537862     -660.33932320
  entropy T*S    EENTRO =         0.00000000
  eigenvalues    EBANDS =       187.26499439
  atomic energy  EATOM  =      1545.10800544
  Solvation  Ediel_sol  =         0.00000000
  free energy    TOTEN  =       211.62990033 eV

  energy without entropy =      211.62990033  energy(sigma->0) =      211.62990033

[...]

 eigenvalue-minimisations  : 87152
 total energy-change (2. order) :-0.2386173E+03  (-0.2323981E+03)
 number of electron      36.0000000 magnetization
 augmentation part       36.0000000 magnetization

[...]

 Broyden mixing:
  rms(total) = 0.97062E+00    rms(broyden)= 0.97061E+00
  rms(prec ) = 0.12157E+01
  weight for this iteration     100.00

[...]

 eigenvalues of (default mixing * dielectric matrix)
  average eigenvalue GAMMA=   0.7943
  0.7943

[...]

 eigenvalue-minimisations  : 98254
 total energy-change (2. order) :-0.4460566E-05  (-0.1356222E-04)
 number of electron      36.0000013 magnetization
 augmentation part       -1.0823164 magnetization

[...]

 Broyden mixing:
  rms(total) = 0.31078E-03    rms(broyden)= 0.31077E-03
  rms(prec ) = 0.45948E-03
  weight for this iteration     100.00

 eigenvalues of (default mixing * dielectric matrix)
  average eigenvalue GAMMA=   1.6541
  3.4038  2.5151  2.4051  1.5477  1.5477  0.6533  0.9964  0.9087  0.9087

[...]

--------------------------------------- Iteration      1(  15)  ---------------------------------------

[...]

 eigenvalue-minimisations  : 68282
 total energy-change (2. order) : 0.3183109E-06  (-0.3070340E-06)
 number of electron      36.0000013 magnetization
 augmentation part       -1.0808011 magnetization

 Free energy of the ion-electron system (eV)
  alpha Z        PSCENC =        80.02335958
  Ewald energy   TEWEN  =     -1146.88908035
  -Hartree energ DENC   =      -543.58795918
  -exchange      EXHF   =         0.00000000
  -V(xc)+E(xc)   XCENC  =       -71.81674142
  PAW double counting   =       946.55706566     -794.40266320
  entropy T*S    EENTRO =         0.00000000
  eigenvalues    EBANDS =       -58.59098394
  atomic energy  EATOM  =      1545.10800544
  Solvation  Ediel_sol  =         0.00000000
  free energy    TOTEN  =       -43.59899740 eV

  energy without entropy =      -43.59899740  energy(sigma->0) =      -43.59899740

 average (electrostatic) potential at core
  the test charge radii are     1.2296  0.9698
  (the norm of the test charge is              1.0000)
       1 -40.1563       2 -40.1563       3-104.4622       4-104.4622       5-104.4622
       6-104.4622

 E-fermi :   3.5680     XC(G=0):  -9.3284     alpha+bet : -9.9201

 k-point     1 :       0.0000    0.0000    0.0000
  band No.  band energies     occupation
      1     -10.6563      2.00000
      2     -10.6373      2.00000
      3      -9.4633      2.00000
      4      -9.4294      2.00000
      5      -2.2577      2.00000
      6      -2.0975      2.00000
      7       0.7637      2.00000
      8       0.7638      2.00000
      9       0.7643      2.00000
     10       0.7643      2.00000
     11       1.3568      2.00000
     12       1.8654      2.00000
     13       1.8655      2.00000
     14       1.8673      2.00000
     15       1.8673      2.00000
     16       1.9161      2.00000
     17       3.1671      2.00000
     18       3.5354      2.00000
     19       6.1085      0.00000
     20       6.1092      0.00000
     21       6.1131      0.00000
     22       6.1562      0.00000

[...]

 k-point  1456 :       0.3333    0.3333    0.5000
  band No.  band energies     occupation
      1      -8.6150      2.00000
      2      -8.6150      2.00000
      3      -8.4612      2.00000
      4      -8.4612      2.00000
      5      -1.9773      2.00000
      6      -1.9773      2.00000
      7      -1.1615      2.00000
      8      -1.1615      2.00000
      9      -0.6645      2.00000
     10      -0.6645      2.00000
     11      -0.1841      2.00000
     12      -0.1841      2.00000
     13       0.5003      2.00000
     14       0.5003      2.00000
     15       1.2104      2.00000
     16       1.2104      2.00000
     17       3.3337      2.00000
     18       3.3337      2.00000
     19       4.9935      0.00000
     20       4.9935      0.00000
     21       6.3650      0.00000
     22       6.3650      0.00000

 soft charge-density along one line, spin component           1
         0         1         2         3         4         5         6         7         8         9
 total charge-density along one line

------------------------ aborting loop because EDIFF is reached ----------------------------------------

  FORCE on cell =-STRESS in cart. coord.  units (eV):
  Direction    XX          YY          ZZ          XY          YZ          ZX
  Alpha Z    80.02336    80.02336    80.02336
  Ewald     -12.90877   -12.90777 -1121.07436     0.00076     0.00000     0.00000
  Hartree   466.75129   466.75130  -389.90502     0.00001     0.00000    -0.00000
  E(xc)    -140.98250  -140.98250  -142.12963    -0.00000    -0.00000     0.00000
  Local   -1119.53134 -1119.53195   832.24666    -0.00060     0.00000    -0.00000
  n-local   338.14584   335.37662   348.52976    -1.34408     0.00392     0.00355
  augment   -85.64764   -85.64748   -88.28510     0.00013     0.00000     0.00000
  Kinetic   473.14743   477.71453   480.44774   -15.05103     0.00523     0.00495
  Fock        0.00000     0.00000     0.00000     0.00000     0.00000     0.00000
  Total      -0.10311    -0.10311    -0.14660    -0.00000     0.00000     0.00000
  in kB      -1.25960    -1.25960    -1.79088    -0.00000     0.00000     0.00000

 VOLUME and BASIS-vectors are now :
  energy-cutoff  :      500.00
  volume of cell :      131.15
      direct lattice vectors                 reciprocal lattice vectors
     3.190316000  0.000000000  0.000000000     0.313448574  0.180969664  0.000000000
    -1.595158000  2.762894000  0.000000000     0.000000000  0.361939329  0.000000000
     0.000000000  0.000000000 14.879004000     0.000000000  0.000000000  0.067208800

  length of vectors
     3.190316000  3.190315392 14.879004000     0.361939260  0.361939329  0.067208800

 FORCES acting on ions
    electron-ion (+dipol)            ewald-force                    non-local-force                 convergence-correction
   0.424E-05 0.165E-04 -.915E-10   0.186E-03 -.138E-03 0.142E-13   0.347E-16 0.000E+00 0.119E-19   0.177E-07 -.111E-07 0.262E-13
   -.424E-05 -.165E-04 0.907E-10   -.186E-03 0.138E-03 0.114E-12   -.364E-16 0.694E-17 0.847E-20   -.177E-07 0.111E-07 0.117E-13
   -.921E-03 0.523E-03 -.241E+03   -.931E-04 0.690E-04 0.247E+03   -.382E-16 0.269E-16 -.541E+01   -.404E-07 0.241E-07 0.320E-02
   0.921E-03 -.523E-03 -.241E+03   0.931E-04 -.690E-04 0.247E+03   -.173E-17 -.356E-16 -.541E+01   0.404E-07 -.241E-07 0.320E-02
   -.921E-03 0.523E-03 0.241E+03   -.931E-04 0.690E-04 -.247E+03   -.165E-16 0.356E-16 0.541E+01   -.404E-07 0.241E-07 -.320E-02
   0.921E-03 -.523E-03 0.241E+03   0.931E-04 -.690E-04 -.247E+03   0.408E-16 -.269E-16 0.541E+01   0.404E-07 -.241E-07 -.320E-02
   -.387E-11 -.727E-11 -.982E-12   -.307E-14 -.630E-15 0.114E-12   -.173E-16 0.694E-17 0.888E-15   0.392E-15 -.124E-14 0.631E-13

 POSITION                                       TOTAL-FORCE (eV/Angst)
     -0.00000      1.84193      3.71975        -0.000000      0.000000     -0.000000
      1.59516      0.92096     11.15925         0.000000      0.000000      0.000000
      1.59516      0.92096      5.28464         0.000000     -0.000000     -0.021759
     -0.00000      1.84193     12.72414        -0.000000      0.000000     -0.021759
      1.59516      0.92096      2.15487        -0.000000     -0.000000      0.021759
     -0.00000      1.84193      9.59437         0.000000      0.000000      0.021759
    total drift:                               -0.000000     -0.000000     -0.000000

  FREE ENERGIE OF THE ION-ELECTRON SYSTEM (eV)
  free  energy   TOTEN  =       -43.59899740 eV

  energy  without entropy=      -43.59899740  energy(sigma->0) =      -43.59899740

 BZINTS: Fermi energy:  3.567978; 36.000000 electrons
         Band energy: -58.590984;  BLOECHL correction:  0.000000