 vasp.5.4.4.18Apr17-6-g9f103f2a35 (build May 20 2018 16:52:39) complex

 executed on             LinuxIFC date 2022.11.07  01:01:25

 INCAR:
 POTCAR:    PAW Ni
 POTCAR:    PAW O
 POTCAR:    PAW Ni
   VRHFIN =Ni:

   TITEL  = PAW Ni
   POMASS =   58.690; ZVAL   =   10.000    mass and valenz
   ENMAX  =  269.561; ENMIN  =  202.171 eV
   QCUT   =   -4.451; QGAM   =    8.902    optimization parameters

   Description
     l     E      TYP  RCUT    TYP  RCUT
     2   .000     23  2.300
     2   .000     23  2.300
     0   .000     23  2.300
     0   .000     23  2.300
     1  -.200     23  2.300
     1   .000     23  2.300
     3   .000      7   .000

 POTCAR:    PAW O
   VRHFIN =O: s2p4

   TITEL  = PAW O
   POMASS =   16.000; ZVAL   =    6.000    mass and valenz
   ENMAX  =  400.000; ENMIN  =  300.000 eV
   QCUT   =   -5.520; QGAM   =   11.040    optimization parameters

   Description
     l     E      TYP  RCUT    TYP  RCUT
     0   .000     23  1.200
     0  -.700     23  1.200
     1   .000     23  1.520
     1   .600     23  1.520
     2   .000      7  1.500

  PAW Ni                                :
  PAW O                                 :

 POSCAR: NiO AFM
  positions in cartesian coordinates
  velocities in cartesian coordinates
 exchange correlation table for  LEXCH =        7
   RHO(1)=    0.500       N(1)  =     2000
   RHO(2)=  100.500       N(2)  =     4000

 ion  position               nearest neighbor table
   1  0.000  0.000  0.000-   4 2.08   4 2.08   4 2.08   3 2.08   3 2.08   3 2.08   2 2.95   2 2.95
                             2 2.95   2 2.95   2 2.95   2 2.95
   2  0.500  0.500  0.500-   3 2.08   3 2.08   3 2.08   4 2.08   4 2.08   4 2.08   1 2.95   1 2.95
                             1 2.95   1 2.95   1 2.95   1 2.95
   3  0.250  0.250  0.250-   1 2.08   1 2.08   1 2.08   2 2.08   2 2.08   2 2.08
   4  0.750  0.750  0.750-   2 2.08   2 2.08   2 2.08   1 2.08   1 2.08   1 2.08

  LATTYP: Found a trigonal (rhomboedric) cell.
 ALAT       =     5.1071861137
 COS(alpha) =     0.8333333333

  Lattice vectors:

 A1 = (   4.1700000000,   2.0850000000,   2.0850000000)
 A2 = (   2.0850000000,   4.1700000000,   2.0850000000)
 A3 = (   2.0850000000,   2.0850000000,   4.1700000000)

Analysis of symmetry for initial positions (statically):
 Subroutine PRICEL returns following result:

  LATTYP: Found a face centered cubic cell.
 ALAT       =     4.1700000000

[...]

   2 primitive cells build up your supercell.

 Routine SETGRP: Setting up the symmetry group for a
 trigonal (rhombohedral) supercell.

 Subroutine GETGRP returns: Found 12 space group operations
 (whereof 12 operations were pure point group operations)
 out of a pool of 12 trial point group operations.

The static configuration has the point symmetry D_3d.

Analysis of symmetry for dynamics (positions and initial velocities):
 Subroutine PRICEL returns following result:

[...]

The dynamic configuration has the point symmetry D_3d.

Analysis of structural, dynamic, and magnetic symmetry:
 Subroutine PRICEL returns following result:

  LATTYP: Found a face centered cubic cell.
 ALAT       =     4.1700000000

  Lattice vectors:

 A1 = (   2.0850000000,   0.0000000000,  -2.0850000000)
 A2 = (   0.0000000000,   2.0850000000,  -2.0850000000)
 A3 = (   2.0850000000,   2.0850000000,   0.0000000000)

   2 primitive cells build up your supercell.

 Routine SETGRP: Setting up the symmetry group for a
 trigonal (rhombohedral) supercell.

 Subroutine GETGRP returns: Found 12 space group operations
 (whereof 12 operations were pure point group operations)
 out of a pool of 12 trial point group operations.

The magnetic configuration has the point symmetry D_3d.

 Subroutine INISYM returns: Found 12 space group operations
 (whereof 12 operations are pure point group operations),
 and found     2 'primitive' translations

 KPOINTS: K-points
  interpolating k-points between supplied coordinates
  k-points in reciprocal lattice
Space group operators:
 irot       det(A)        alpha          n_x          n_y          n_z        tau_x        tau_y        tau_z
    1     1.000000     0.000000     1.000000     0.000000     0.000000     0.000000     0.000000     0.000000
    2    -1.000000     0.000000     1.000000     0.000000     0.000000     0.000000     0.000000     0.000000
    3     1.000000   180.000000     0.000000     0.707107    -0.707107     0.000000     0.000000     0.000000
    4    -1.000000   180.000000     0.000000     0.707107    -0.707107     0.000000     0.000000     0.000000
    5     1.000000   120.000000    -0.577350    -0.577350    -0.577350     0.000000     0.000000     0.000000
    6    -1.000000   120.000000    -0.577350    -0.577350    -0.577350     0.000000     0.000000     0.000000
    7     1.000000   180.000000     0.707107    -0.707107     0.000000     0.000000     0.000000     0.000000
    8    -1.000000   180.000000     0.707107    -0.707107     0.000000     0.000000     0.000000     0.000000
    9     1.000000   120.000000     0.577350     0.577350     0.577350     0.000000     0.000000     0.000000
   10    -1.000000   120.000000     0.577350     0.577350     0.577350     0.000000     0.000000     0.000000
   11     1.000000   180.000000     0.707107     0.000000    -0.707107     0.000000     0.000000     0.000000
   12    -1.000000   180.000000     0.707107     0.000000    -0.707107     0.000000     0.000000     0.000000

 SYSTEM =  NiO_af2
 POSCAR =  NiO AFM

 Startparameter for this run:
   NWRITE =      2    write-flag & timer
   PREC   = normal    normal or accurate (medium, high low for compatibility)
   ISTART =      0    job   : 0-new  1-cont  2-samecut
   ICHARG =     11    charge: 1-file 2-atom 10-const
   ISPIN  =      2    spin polarized calculation?
   LNONCOLLINEAR =      F non collinear calculations
   LSORBIT =      F    spin-orbit coupling
   INIWAV =      1    electr: 0-lowe 1-rand  2-diag
   LASPH  =      F    aspherical Exc in radial PAW
   METAGGA=      F    non-selfconsistent MetaGGA calc.

 Electronic Relaxation 1
   ENCUT  =  400.0 eV  29.40 Ry    5.42 a.u.   8.33  8.33  8.33*2*pi/ulx,y,z
   ENINI  =  400.0     initial cutoff
   ENAUG  =  605.4 eV  augmentation charge cutoff
   NELM   =     60;   NELMIN=  2; NELMDL= -5     # of ELM steps
   EDIFF  = 0.1E-03   stopping-criterion for ELM
   LREAL  =      F    real-space projection
   NLSPLINE    = F    spline interpolate recip. space projectors
   LCOMPAT=      F    compatible to vasp.4.4
   GGA_COMPAT  = T    GGA compatible to vasp.4.4-vasp.4.6
   LMAXPAW     = -100 max onsite density
   LMAXMIX     =    2 max onsite mixed and CHGCAR
   VOSKOWN=      0    Vosko Wilk Nusair interpolation
   ROPT   =    0.00000   0.00000
 Ionic relaxation
   EDIFFG = 0.1E-02   stopping-criterion for IOM
   NSW    =      0    number of steps for IOM
   NBLOCK =      1;   KBLOCK =      1    inner block; outer block
   IBRION =     -1    ionic relax: 0-MD 1-quasi-New 2-CG
   NFREE  =      0    steps in history (QN), initial steepest desc. (CG)
   ISIF   =      2    stress and relaxation
   IWAVPR =     10    prediction:  0-non 1-charg 2-wave 3-comb
   ISYM   =      2    0-nonsym 1-usesym 2-fastsym
   LCORR  =      T    Harris-Foulkes like correction to forces

   POTIM  = 0.5000    time-step for ionic-motion
   TEIN   =    0.0    initial temperature
   TEBEG  =    0.0;   TEEND  =   0.0 temperature during run
   SMASS  =  -3.00    Nose mass-parameter (am)
   estimated Nose-frequenzy (Omega)   =  0.10E-29 period in steps =****** mass=  -0.596E-27a.u.
   SCALEE = 1.0000    scale energy and forces
   NPACO  =    256;   APACO  = 16.0  distance and # of slots for P.C.
   PSTRESS=    0.0 pullay stress

  Mass of Ions in am
   POMASS =  58.69 16.00
  Ionic Valenz
   ZVAL   =  10.00  6.00
  Atomic Wigner-Seitz radii
  virtual crystal weights
   VCA    =   1.00  1.00
   NELECT =      32.0000    total number of electrons
   NUPDOWN=      -1.0000    fix difference up-down

 DOS related values:
   EMIN   =  10.00;   EMAX   =-10.00  energy-range for DOS
   EFERMI =   0.00
   ISMEAR =     1;   SIGMA  =   0.20  broadening in eV -4-tet -1-fermi 0-gaus

 Electronic relaxation 2 (details)
   IALGO  =     38    algorithm
   LDIAG  =      T    sub-space diagonalisation (order eigenvalues)
   LSUBROT=      F    optimize rotation matrix (better conditioning)
   TURBO    =      0    0=normal 1=particle mesh
   IRESTART =      0    0=no restart 2=restart with 2 vectors
   NREBOOT  =      0    no. of reboots
   NMIN     =      0    reboot dimension
   EREF     =   0.00    reference energy to select bands
   IMIX   =      4    mixing-type and parameters
     AMIX     =   0.40;   BMIX     =  1.00
     AMIX_MAG =   1.60;   BMIX_MAG =  1.00
     AMIN     =   0.10
     WC   =   100.;   INIMIX=   1;  MIXPRE=   1;  MAXMIX= -45

 Intra band minimization:
   WEIMIN = 0.0000     energy-eigenvalue tresh-hold
   EBREAK =  0.13E-05  absolut break condition
   DEPER  =   0.30     relativ break condition

   TIME   =   0.40     timestep for ELM

  volume/ion in A,a.u.               =       9.06        61.17
  Fermi-wavevector in a.u.,A,eV,Ry     =   1.570358  2.967547 33.552312  2.466025
  Thomas-Fermi vector in A             =   2.672104

 Write flags
   LWAVE        =      F    write WAVECAR
   LDOWNSAMPLE  =      F    k-point downsampling of WAVECAR
   LCHARG       =      F    write CHGCAR
   LVTOT        =      F    write LOCPOT, total local potential
   LVHAR        =      F    write LOCPOT, Hartree potential only
   LELF         =      F    write electronic localiz. function (ELF)
   LORBIT       =     11    0 simple, 1 ext, 2 COOP (PROOUT), +10 PAW based schemes

 Dipole corrections
   LMONO  =      F    monopole corrections only (constant potential shift)
   LDIPOL =      F    correct potential (dipole corrections)
   IDIPOL =      0    1-x, 2-y, 3-z, 4-all directions
   EPSILON=  1.0000000 bulk dielectric constant

 LDA+U is selected, type is set to LDAUTYPE =  2
   angular momentum for each species LDAUL =     2   -1
   U (eV)           for each species LDAUU =   7.0  0.0
   J (eV)           for each species LDAUJ =   0.0  0.0
 Exchange correlation treatment:
   GGA     =    --    GGA type
   VOSKOWN=      0    Vosko Wilk Nusair interpolation
   LHFCALC =     F    Hartree Fock is set to
   LHFONE  =     F    Hartree Fock one center treatment
   AEXX    =    0.0000 exact exchange contribution

 Linear response parameters
   LEPSILON=     F    determine dielectric tensor
   LRPA    =     F    only Hartree local field effects (RPA)
   LNABLA  =     F    use nabla operator in PAW spheres
   LVEL    =     F    velocity operator in full k-point grid
   LINTERFAST=   F  fast interpolation
   KINTER  =     0    interpolate to denser k-point grid
   CSHIFT  =0.1000    complex shift for real part using Kramers Kronig
   OMEGAMAX=  -1.0    maximum frequency
   DEG_THRESHOLD= 0.2000000E-02 threshold for treating states as degnerate
   RTIME   =   -0.100 relaxation time in fs
  (WPLASMAI=    0.000 imaginary part of plasma frequency in eV, 0.658/RTIME)
   DFIELD  = 0.0000000 0.0000000 0.0000000 field for delta impulse in time

 Orbital magnetization related:
[...]
 k-point 18 :   0.1939 0.0000-0.1939  plane waves:     651
 k-point 19 :   0.1851 0.0000-0.1851  plane waves:     653
 k-point 20 :   0.1763 0.0000-0.1763  plane waves:     653
 k-point 21 :   0.1675 0.0000-0.1675  plane waves:     649
 k-point 22 :   0.1587 0.0000-0.1587  plane waves:     655
 k-point 23 :   0.1498 0.0000-0.1498  plane waves:     651
 k-point 24 :   0.1410 0.0000-0.1410  plane waves:     647
 k-point 25 :   0.1322 0.0000-0.1322  plane waves:     653
 k-point 26 :   0.1234 0.0000-0.1234  plane waves:     661
 k-point 27 :   0.1146 0.0000-0.1146  plane waves:     657
 k-point 28 :   0.1058 0.0000-0.1058  plane waves:     655
 k-point 29 :   0.0970 0.0000-0.0970  plane waves:     659
 k-point 30 :   0.0881 0.0000-0.0881  plane waves:     661
 k-point 31 :   0.0793 0.0000-0.0793  plane waves:     659
 k-point 32 :   0.0705 0.0000-0.0705  plane waves:     659
 k-point 33 :   0.0617 0.0000-0.0617  plane waves:     661
 k-point 34 :   0.0529 0.0000-0.0529  plane waves:     661
 k-point 35 :   0.0441 0.0000-0.0441  plane waves:     665
 k-point 36 :   0.0353 0.0000-0.0353  plane waves:     665
 k-point 37 :   0.0264 0.0000-0.0264  plane waves:     665
 k-point 38 :   0.0176 0.0000-0.0176  plane waves:     665
 k-point 39 :   0.0088 0.0000-0.0088  plane waves:     663
 k-point 40 :   0.0000 0.0000 0.0000  plane waves:     663
 k-point 41 :   0.0000 0.0000 0.0000  plane waves:     663
 k-point 42 :   0.0128 0.0128 0.0128  plane waves:     663
 k-point 43 :   0.0256 0.0256 0.0256  plane waves:     663
 k-point 44 :   0.0385 0.0385 0.0385  plane waves:     663
 k-point 45 :   0.0513 0.0513 0.0513  plane waves:     666
 k-point 46 :   0.0641 0.0641 0.0641  plane waves:     666
 k-point 47 :   0.0769 0.0769 0.0769  plane waves:     666
 k-point 48 :   0.0897 0.0897 0.0897  plane waves:     666
 k-point 49 :   0.1026 0.1026 0.1026  plane waves:     666
 k-point 50 :   0.1154 0.1154 0.1154  plane waves:     666
 k-point 51 :   0.1282 0.1282 0.1282  plane waves:     666
 k-point 52 :   0.1410 0.1410 0.1410  plane waves:     660
 k-point 53 :   0.1538 0.1538 0.1538  plane waves:     664
 k-point 54 :   0.1667 0.1667 0.1667  plane waves:     664
 k-point 55 :   0.1795 0.1795 0.1795  plane waves:     664
 k-point 56 :   0.1923 0.1923 0.1923  plane waves:     664
 k-point 57 :   0.2051 0.2051 0.2051  plane waves:     664
 k-point 58 :   0.2179 0.2179 0.2179  plane waves:     664
 k-point 59 :   0.2308 0.2308 0.2308  plane waves:     661
 k-point 60 :   0.2436 0.2436 0.2436  plane waves:     661
[...]
 k-point 85 :   0.5321 0.4840 0.4840  plane waves:     647
 k-point 86 :   0.5401 0.4800 0.4800  plane waves:     653
 k-point 87 :   0.5481 0.4760 0.4760  plane waves:     655
 k-point 88 :   0.5561 0.4720 0.4720  plane waves:     657
 k-point 89 :   0.5641 0.4679 0.4679  plane waves:     659
 k-point 90 :   0.5721 0.4639 0.4639  plane waves:     653
 k-point 91 :   0.5801 0.4599 0.4599  plane waves:     655
 k-point 92 :   0.5881 0.4559 0.4559  plane waves:     655
 k-point 93 :   0.5962 0.4519 0.4519  plane waves:     654
 k-point 94 :   0.6042 0.4479 0.4479  plane waves:     652
 k-point 95 :   0.6122 0.4439 0.4439  plane waves:     651
 k-point 96 :   0.6202 0.4399 0.4399  plane waves:     651
 k-point 97 :   0.6282 0.4359 0.4359  plane waves:     650
 k-point 98 :   0.6362 0.4319 0.4319  plane waves:     650
 k-point 99 :   0.6442 0.4279 0.4279  plane waves:     650
 k-point ** :   0.6522 0.4239 0.4239  plane waves:     648
 k-point ** :   0.6603 0.4199 0.4199  plane waves:     650
 k-point ** :   0.6683 0.4159 0.4159  plane waves:     654
 k-point ** :   0.6763 0.4119 0.4119  plane waves:     656
 k-point ** :   0.6843 0.4079 0.4079  plane waves:     656
 k-point ** :   0.6923 0.4038 0.4038  plane waves:     652
 k-point ** :   0.7003 0.3998 0.3998  plane waves:     653
 k-point ** :   0.7083 0.3958 0.3958  plane waves:     649
 k-point ** :   0.7163 0.3918 0.3918  plane waves:     651
 k-point ** :   0.7244 0.3878 0.3878  plane waves:     653
 k-point ** :   0.7324 0.3838 0.3838  plane waves:     655
 k-point ** :   0.7404 0.3798 0.3798  plane waves:     655
 k-point ** :   0.7484 0.3758 0.3758  plane waves:     656
 k-point ** :   0.7564 0.3718 0.3718  plane waves:     656
 k-point ** :   0.7644 0.3678 0.3678  plane waves:     658
 k-point ** :   0.7724 0.3638 0.3638  plane waves:     656
 k-point ** :   0.7804 0.3598 0.3598  plane waves:     656
 k-point ** :   0.7885 0.3558 0.3558  plane waves:     656
 k-point ** :   0.7965 0.3518 0.3518  plane waves:     660
 k-point ** :   0.8045 0.3478 0.3478  plane waves:     660
 k-point ** :   0.8125 0.3438 0.3438  plane waves:     660
 k-point ** :   0.8125 0.3438 0.3438  plane waves:     660
 k-point ** :   0.7965 0.3261 0.3261  plane waves:     661
 k-point ** :   0.7804 0.3085 0.3085  plane waves:     659
 k-point ** :   0.7644 0.2909 0.2909  plane waves:     659
 k-point ** :   0.7484 0.2732 0.2732  plane waves:     661
 k-point ** :   0.7324 0.2556 0.2556  plane waves:     659
 k-point ** :   0.7163 0.2380 0.2380  plane waves:     661
 k-point ** :   0.7003 0.2204 0.2204  plane waves:     659
 k-point ** :   0.6843 0.2027 0.2027  plane waves:     657
 k-point ** :   0.6683 0.1851 0.1851  plane waves:     658
 k-point ** :   0.6522 0.1675 0.1675  plane waves:     659
 k-point ** :   0.6362 0.1498 0.1498  plane waves:     657
 k-point ** :   0.6202 0.1322 0.1322  plane waves:     657
 k-point ** :   0.6042 0.1146 0.1146  plane waves:     658
 k-point ** :   0.5881 0.0970 0.0970  plane waves:     659
 k-point ** :   0.5721 0.0793 0.0793  plane waves:     657
 k-point ** :   0.5561 0.0617 0.0617  plane waves:     657
 k-point ** :   0.5401 0.0441 0.0441  plane waves:     659
 k-point ** :   0.5240 0.0264 0.0264  plane waves:     658
 k-point ** :   0.5080 0.0088 0.0088  plane waves:     658
 k-point ** :   0.4920-0.0088-0.0088  plane waves:     658
 k-point ** :   0.4760-0.0264-0.0264  plane waves:     658
 k-point ** :   0.4599-0.0441-0.0441  plane waves:     659
 k-point ** :   0.4439-0.0617-0.0617  plane waves:     657
 k-point ** :   0.4279-0.0793-0.0793  plane waves:     657
 k-point ** :   0.4119-0.0970-0.0970  plane waves:     659
 k-point ** :   0.3958-0.1146-0.1146  plane waves:     658
 k-point ** :   0.3798-0.1322-0.1322  plane waves:     657
 k-point ** :   0.3638-0.1498-0.1498  plane waves:     657
 k-point ** :   0.3478-0.1675-0.1675  plane waves:     659
 k-point ** :   0.3317-0.1851-0.1851  plane waves:     658
 k-point ** :   0.3157-0.2027-0.2027  plane waves:     657
 k-point ** :   0.2997-0.2204-0.2204  plane waves:     659
 k-point ** :   0.2837-0.2380-0.2380  plane waves:     661
 k-point ** :   0.2676-0.2556-0.2556  plane waves:     659
 k-point ** :   0.2516-0.2732-0.2732  plane waves:     661
 k-point ** :   0.2356-0.2909-0.2909  plane waves:     659
 k-point ** :   0.2196-0.3085-0.3085  plane waves:     659
 k-point ** :   0.2035-0.3261-0.3261  plane waves:     661
[...]
 k-point ** :  -0.0529-0.5441-0.5441  plane waves:     667
 k-point ** :  -0.0625-0.5521-0.5521  plane waves:     667
 k-point ** :  -0.0721-0.5601-0.5601  plane waves:     667
 k-point ** :  -0.0817-0.5681-0.5681  plane waves:     667
 k-point ** :  -0.0913-0.5761-0.5761  plane waves:     667
 k-point ** :  -0.1010-0.5841-0.5841  plane waves:     669
 k-point ** :  -0.1106-0.5921-0.5921  plane waves:     669
 k-point ** :  -0.1202-0.6002-0.6002  plane waves:     667
 k-point ** :  -0.1298-0.6082-0.6082  plane waves:     667
 k-point ** :  -0.1394-0.6162-0.6162  plane waves:     666
 k-point ** :  -0.1490-0.6242-0.6242  plane waves:     666
 k-point ** :  -0.1587-0.6322-0.6322  plane waves:     660
 k-point ** :  -0.1683-0.6402-0.6402  plane waves:     660
 k-point ** :  -0.1779-0.6482-0.6482  plane waves:     660
 k-point ** :  -0.1875-0.6562-0.6562  plane waves:     660

 maximum and minimum number of plane-waves per node :       674      646

 maximum number of plane-waves:       674
 maximum index in each direction:
   IXMAX=    8   IYMAX=    8   IZMAX=    8
   IXMIN=   -9   IYMIN=   -8   IZMIN=   -8

 serial   3D FFT for wavefunctions
 parallel 3D FFT for charge:
    minimum data exchange during FFTs selected (reduces bandwidth)

 initial charge density was supplied:
 number of electron      32.0000048 magnetization      -0.0000000
 keeping initial charge density in first step

 Maximum index for augmentation-charges        19063 (set IRDMAX)

 First call to EWALD:  gamma=   0.536
 Maximum number of real-space cells 3x 3x 3
 Maximum number of reciprocal cells 4x 4x 4

--------------------------------------- Iteration      1(   1)  ---------------------------------------

 eigenvalue-minimisations  : 16332
 total energy-change (2. order) : 0.2115052E+03  (-0.1460335E+04)
 number of electron      32.0000048 magnetization      -0.0000000
 augmentation part       32.0000048 magnetization      -0.0000000

 Free energy of the ion-electron system (eV)
  alpha Z        PSCENC =       217.71629331
  Ewald energy   TEWEN  =     -2604.77031634
  -Hartree energ DENC   =      -632.49514599
  -exchange      EXHF   =         0.00000000
  -V(xc)+E(xc)   XCENC  =       119.26979754
  PAW double counting   =      2353.94650180    -2447.92555954
  entropy T*S    EENTRO =        -0.00006583
  eigenvalues    EBANDS =       181.02116385
  atomic energy  EATOM  =      3024.74254395
  Solvation  Ediel_sol  =         0.00000000
  free energy    TOTEN  =       211.50521275 eV

  energy without entropy =      211.50527858  energy(sigma->0) =      211.50523469

[...]

 eigenvalue-minimisations  : 16956
 total energy-change (2. order) :-0.2067687E+03  (-0.1967569E+03)
 number of electron      32.0000048 magnetization      -0.0000000
 augmentation part       32.0000048 magnetization      -0.0000000

[...]

--------------------------------------- Iteration      1(   7)  ---------------------------------------

 eigenvalue-minimisations  : 10588
 total energy-change (2. order) :-0.3315149E-05  (-0.3315504E-05)
 number of electron      32.0000048 magnetization      -0.0000000
 augmentation part       32.0000048 magnetization      -0.0000000

 Free energy of the ion-electron system (eV)
  alpha Z        PSCENC =       217.71629331
  Ewald energy   TEWEN  =     -2604.77031634
  -Hartree energ DENC   =      -632.49514599
  -exchange      EXHF   =         0.00000000
  -V(xc)+E(xc)   XCENC  =       119.26979754
  PAW double counting   =      2353.94650180    -2447.92555954
  entropy T*S    EENTRO =         0.01102919
  eigenvalues    EBANDS =       -45.27009616
  atomic energy  EATOM  =      3024.74254395
  Solvation  Ediel_sol  =         0.00000000
  free energy    TOTEN  =       -14.77495224 eV

  energy without entropy =      -14.78598143  energy(sigma->0) =      -14.77862864

 average (electrostatic) potential at core
  the test charge radii are     0.9791  0.7215
  (the norm of the test charge is              1.0000)
       1 -43.1214       2 -43.1214       3 -71.0792       4 -71.0792

 E-fermi :   3.7036     XC(G=0): -12.7209     alpha+bet :-11.2748

 spin component 1

 k-point     1 :       0.3438    0.0000   -0.3438
  band No.  band energies     occupation
      1     -13.2099      1.00000
      2     -13.2086      1.00000
      3      -2.7000      1.00000
      4      -2.3911      1.00000
      5      -2.2103      1.00000
      6      -1.8742      1.00000
      7      -1.8434      1.00000
      8      -0.5922      1.00000
      9      -0.3802      1.00000
     10       0.3008      1.00000
     11       0.5873      1.00000
     12       1.7655      1.00000
     13       2.2960      1.00000
     14       2.9676      1.00000
     15       3.1935      1.00092
     16       3.3510      1.01590
     17       5.0555     -0.00000
     18       5.1468     -0.00000
     19      13.8421      0.00000
     20      14.0591      0.00000

[...]

 spin component 2

[...]

 k-point   200 :      -0.1875   -0.6562   -0.6562
  band No.  band energies     occupation
      1     -13.3899      1.00000
      2     -13.2199      1.00000
      3      -3.3413      1.00000
      4      -2.4104      1.00000
      5      -2.3904      1.00000
      6      -1.5855      1.00000
      7      -1.1880      1.00000
      8      -0.9598      1.00000
      9      -0.3693      1.00000
     10       0.9909      1.00000
     11       1.2352      1.00000
     12       1.8645      1.00000
     13       2.0336      1.00000
     14       2.6030      1.00000
     15       3.0556      1.00002
     16       3.3235      1.01088
     17       5.4990     -0.00000
     18       5.6274     -0.00000
     19      11.5184      0.00000
     20      11.7603      0.00000

 soft charge-density along one line, spin component           1
         0         1         2         3         4         5         6         7         8         9
 total charge-density along one line

 soft charge-density along one line, spin component           2
         0         1         2         3         4         5         6         7         8         9
 total charge-density along one line

------------------------ aborting loop because EDIFF is reached ----------------------------------------

 total charge

# of ion       s       p       d       tot
    1        0.341   0.366   8.730   9.437
    2        0.341   0.366   8.730   9.437
    3        1.554   3.176   0.000   4.730
    4        1.554   3.176   0.000   4.730
tot          3.789   7.085  17.460  28.334

 magnetization (x)

[...]

  FORCE on cell =-STRESS in cart. coord.  units (eV):
  Direction    XX          YY          ZZ          XY          YZ          ZX
  Alpha Z   217.71629   217.71629   217.71629
  Ewald    -868.25805  -868.25805  -868.25805     0.00000    -0.00000    -0.00000
  Hartree   224.48916   224.48916   224.48916    -0.14131    -0.14131    -0.14131
  E(xc)    -171.06126  -171.06126  -171.06126    -0.00874    -0.00874    -0.00874
  Local     196.98765   196.98765   196.98765     0.10961     0.10961     0.10961
  n-local   -95.75003   -99.95730   -99.80373     0.01026    -0.72904     0.02025
  augment   124.46329   124.46329   124.46329     0.08284     0.08284     0.08284
  Kinetic   399.55957   407.54554   406.46303    -0.92347     0.91607    -1.23039
  Fock        0.00000     0.00000     0.00000     0.00000     0.00000     0.00000
  Total      30.35611    30.35611    30.35611    -0.60304    -0.60304    -0.60304
  in kB    1341.46245  1341.46245  1341.46245   -26.64895   -26.64895   -26.64895

 VOLUME and BASIS-vectors are now :
  energy-cutoff  :      400.00
  volume of cell :       36.26
      direct lattice vectors                 reciprocal lattice vectors
     4.170000000  2.085000000  2.085000000     0.359712230 -0.119904077 -0.119904077
     2.085000000  4.170000000  2.085000000    -0.119904077  0.359712230 -0.119904077
     2.085000000  2.085000000  4.170000000    -0.119904077 -0.119904077  0.359712230

  length of vectors
     5.107186114  5.107186114  5.107186114     0.397676833  0.397676833  0.397676833

 FORCES acting on ions
    electron-ion (+dipol)            ewald-force                    non-local-force                 convergence-correction
   -.420E-13 -.115E-14 -.156E-12   0.000E+00 -.284E-13 -.568E-13   -.265E-21 -.424E-21 0.741E-21   -.831E-13 -.747E-13 -.593E-13
   0.842E-12 0.218E-11 0.223E-11   0.568E-13 0.284E-13 0.000E+00   -.424E-21 -.424E-21 -.424E-21   -.560E-12 -.482E-12 -.493E-12
   -.515E-12 0.636E-12 0.630E-12   -.426E-13 -.131E-13 0.169E-13   -.106E-21 0.212E-21 0.000E+00   0.237E-14 -.426E-13 -.394E-13
   0.249E-11 -.109E-11 -.109E-11   -.152E-13 0.134E-13 0.426E-13   -.132E-21 -.344E-21 -.582E-21   -.457E-13 0.155E-12 0.141E-12
   0.278E-11 0.172E-11 0.162E-11   -.869E-15 0.280E-15 0.262E-14   -.926E-21 -.979E-21 -.265E-21   -.686E-12 -.444E-12 -.451E-12

 POSITION                                       TOTAL-FORCE (eV/Angst)
      0.00000      0.00000      0.00000        -0.000000      0.000000     -0.000000
      4.17000      4.17000      4.17000         0.000000     -0.000000     -0.000000
      2.08500      2.08500      2.08500        -0.000000      0.000000      0.000000
      6.25500      6.25500      6.25500         0.000000     -0.000000      0.000000
    total drift:                                0.000000      0.000000      0.000000

  FREE ENERGIE OF THE ION-ELECTRON SYSTEM (eV)
  free  energy   TOTEN  =       -14.77495224 eV

  energy  without entropy=      -14.78598143  energy(sigma->0) =      -14.77862864

 total charge

[...]

 magnetization (x)

# of ion       s       p       d       tot
    1       -0.001  -0.010   1.126   1.115
    2        0.001   0.010  -1.126  -1.115
    3        0.000   0.000   0.000   0.000
    4       -0.000  -0.000   0.000  -0.000
tot         -0.000   0.000  -0.000  -0.000