 vasp.5.4.4.18Apr17-6-g9f103f2a35 (build May 20 2018 16:52:39) complex

 executed on             LinuxIFC date 2022.10.31  00:11:26

 INCAR:
 POTCAR:    PAW Fe
 POTCAR:    PAW Fe
   VRHFIN =Fe:  d7 s1

   TITEL  = PAW Fe
   POMASS =   55.847; ZVAL   =    8.000    mass and valenz
   ENMAX  =  267.969; ENMIN  =  200.977 eV
   QCUT   =   -4.438; QGAM   =    8.876    optimization parameters

   Description
     l     E      TYP  RCUT    TYP  RCUT
     2   .000     23  2.300
     2   .000     23  2.300
     0   .000     23  2.300
     0   .000     23  2.300
     1  -.200     23  2.300
     1   .000     23  2.300
     3   .000      7   .000

  PAW Fe                                :

 POSCAR: Fe bulk fcc
  positions in direct lattice
 exchange correlation table for  LEXCH =        2
   RHO(1)=    0.500       N(1)  =     2000
   RHO(2)=  100.500       N(2)  =     4000

 ion  position               nearest neighbor table
   1  0.000  0.000  0.000-

  LATTYP: Found a face centered cubic cell.
 ALAT       =     3.3500000000

  Lattice vectors:

 A1 = (   0.0000000000,   1.6750000000,   1.6750000000)
 A2 = (   1.6750000000,   0.0000000000,   1.6750000000)
 A3 = (   1.6750000000,   1.6750000000,   0.0000000000)

Analysis of symmetry for initial positions (statically):
 Subroutine PRICEL returns:
 Original cell was already a primitive cell.

 Routine SETGRP: Setting up the symmetry group for a
 face centered cubic supercell.

 Subroutine GETGRP returns: Found 48 space group operations
 (whereof 48 operations were pure point group operations)
 out of a pool of 48 trial point group operations.

The static configuration has the point symmetry O_h .

Analysis of symmetry for dynamics (positions and initial velocities):
 Subroutine PRICEL returns:
 Original cell was already a primitive cell.

[...]

The dynamic configuration has the point symmetry O_h .

Analysis of structural, dynamic, and magnetic symmetry:
 Subroutine PRICEL returns:
 Original cell was already a primitive cell.

 Routine SETGRP: Setting up the symmetry group for a
 face centered cubic supercell.

 Subroutine GETGRP returns: Found 48 space group operations
 (whereof 48 operations were pure point group operations)
 out of a pool of 48 trial point group operations.

The magnetic configuration has the point symmetry O_h .

 Subroutine INISYM returns: Found 48 space group operations
 (whereof 48 operations are pure point group operations),
 and found     1 'primitive' translations

 KPOINTS: 20x20x20

Automatic generation of k-mesh.
Space group operators:
 irot       det(A)        alpha          n_x          n_y          n_z        tau_x        tau_y        tau_z
    1     1.000000     0.000000     1.000000     0.000000     0.000000     0.000000     0.000000     0.000000
    2    -1.000000     0.000000     1.000000     0.000000     0.000000     0.000000     0.000000     0.000000
    3     1.000000   120.000000    -0.577350    -0.577350    -0.577350     0.000000     0.000000     0.000000
    4    -1.000000   120.000000    -0.577350    -0.577350    -0.577350     0.000000     0.000000     0.000000
    5     1.000000   120.000000     0.577350     0.577350     0.577350     0.000000     0.000000     0.000000
    6    -1.000000   120.000000     0.577350     0.577350     0.577350     0.000000     0.000000     0.000000
    7     1.000000    90.000000     0.000000     0.000000    -1.000000     0.000000     0.000000     0.000000
    8    -1.000000    90.000000     0.000000     0.000000    -1.000000     0.000000     0.000000     0.000000
    9     1.000000   180.000000     0.000000     0.707107     0.707107     0.000000     0.000000     0.000000
   10    -1.000000   180.000000     0.000000     0.707107     0.707107     0.000000     0.000000     0.000000
   11     1.000000    90.000000     0.000000     1.000000     0.000000     0.000000     0.000000     0.000000
   12    -1.000000    90.000000     0.000000     1.000000     0.000000     0.000000     0.000000     0.000000
   13     1.000000   180.000000     0.000000     0.000000     1.000000     0.000000     0.000000     0.000000
   14    -1.000000   180.000000     0.000000     0.000000     1.000000     0.000000     0.000000     0.000000
   15     1.000000   120.000000    -0.577350     0.577350     0.577350     0.000000     0.000000     0.000000
   16    -1.000000   120.000000    -0.577350     0.577350     0.577350     0.000000     0.000000     0.000000
   17     1.000000   120.000000    -0.577350     0.577350    -0.577350     0.000000     0.000000     0.000000
   18    -1.000000   120.000000    -0.577350     0.577350    -0.577350     0.000000     0.000000     0.000000
   19     1.000000    90.000000     0.000000     0.000000     1.000000     0.000000     0.000000     0.000000
   20    -1.000000    90.000000     0.000000     0.000000     1.000000     0.000000     0.000000     0.000000
   21     1.000000    90.000000    -1.000000     0.000000     0.000000     0.000000     0.000000     0.000000
   22    -1.000000    90.000000    -1.000000     0.000000     0.000000     0.000000     0.000000     0.000000
   23     1.000000   180.000000     0.707107     0.000000     0.707107     0.000000     0.000000     0.000000
   24    -1.000000   180.000000     0.707107     0.000000     0.707107     0.000000     0.000000     0.000000
   25     1.000000   120.000000     0.577350    -0.577350     0.577350     0.000000     0.000000     0.000000
   26    -1.000000   120.000000     0.577350    -0.577350     0.577350     0.000000     0.000000     0.000000
   27     1.000000   120.000000    -0.577350    -0.577350     0.577350     0.000000     0.000000     0.000000
   28    -1.000000   120.000000    -0.577350    -0.577350     0.577350     0.000000     0.000000     0.000000
   29     1.000000   180.000000     1.000000     0.000000     0.000000     0.000000     0.000000     0.000000
   30    -1.000000   180.000000     1.000000     0.000000     0.000000     0.000000     0.000000     0.000000
   31     1.000000    90.000000     0.000000    -1.000000     0.000000     0.000000     0.000000     0.000000
   32    -1.000000    90.000000     0.000000    -1.000000     0.000000     0.000000     0.000000     0.000000
   33     1.000000   180.000000     0.707107     0.707107     0.000000     0.000000     0.000000     0.000000
   34    -1.000000   180.000000     0.707107     0.707107     0.000000     0.000000     0.000000     0.000000
   35     1.000000    90.000000     1.000000     0.000000     0.000000     0.000000     0.000000     0.000000
   36    -1.000000    90.000000     1.000000     0.000000     0.000000     0.000000     0.000000     0.000000
   37     1.000000   120.000000     0.577350    -0.577350    -0.577350     0.000000     0.000000     0.000000
   38    -1.000000   120.000000     0.577350    -0.577350    -0.577350     0.000000     0.000000     0.000000
   39     1.000000   180.000000     0.000000     1.000000     0.000000     0.000000     0.000000     0.000000
   40    -1.000000   180.000000     0.000000     1.000000     0.000000     0.000000     0.000000     0.000000
   41     1.000000   120.000000     0.577350     0.577350    -0.577350     0.000000     0.000000     0.000000
   42    -1.000000   120.000000     0.577350     0.577350    -0.577350     0.000000     0.000000     0.000000
   43     1.000000   180.000000     0.000000    -0.707107     0.707107     0.000000     0.000000     0.000000
   44    -1.000000   180.000000     0.000000    -0.707107     0.707107     0.000000     0.000000     0.000000
   45     1.000000   180.000000     0.707107    -0.707107     0.000000     0.000000     0.000000     0.000000
   46    -1.000000   180.000000     0.707107    -0.707107     0.000000     0.000000     0.000000     0.000000
   47     1.000000   180.000000     0.707107     0.000000    -0.707107     0.000000     0.000000     0.000000
   48    -1.000000   180.000000     0.707107     0.000000    -0.707107     0.000000     0.000000     0.000000

 Subroutine IBZKPT returns following result:

 Found    770 irreducible k-points:

 Following reciprocal coordinates:
            Coordinates               Weight
  0.025000  0.025000  0.025000     96.000000
  0.075000  0.025000  0.025000    288.000000
  0.125000  0.025000  0.025000    288.000000
  0.175000  0.025000  0.025000    288.000000
  0.225000  0.025000  0.025000    288.000000
  0.275000  0.025000  0.025000    288.000000
  0.325000  0.025000  0.025000    288.000000
  0.375000  0.025000  0.025000    288.000000
  0.425000  0.025000  0.025000    288.000000
  0.475000  0.025000  0.025000    288.000000
 -0.475000  0.025000  0.025000    288.000000
 -0.425000  0.025000  0.025000    288.000000
 -0.375000  0.025000  0.025000    288.000000
 -0.325000  0.025000  0.025000    288.000000
 -0.275000  0.025000  0.025000    288.000000
 -0.225000  0.025000  0.025000    288.000000
 -0.175000  0.025000  0.025000    288.000000
 -0.125000  0.025000  0.025000    288.000000
 -0.075000  0.025000  0.025000    288.000000
 -0.025000  0.025000  0.025000    288.000000
  0.075000  0.075000  0.025000    288.000000
  0.125000  0.075000  0.025000    576.000000
  0.175000  0.075000  0.025000    576.000000
  0.225000  0.075000  0.025000    576.000000
  0.275000  0.075000  0.025000    576.000000
  0.325000  0.075000  0.025000    576.000000
  0.375000  0.075000  0.025000    576.000000
  0.425000  0.075000  0.025000    576.000000
  0.475000  0.075000  0.025000    576.000000
 -0.475000  0.075000  0.025000    576.000000
 -0.425000  0.075000  0.025000    576.000000
 -0.375000  0.075000  0.025000    576.000000
 -0.325000  0.075000  0.025000    576.000000
 -0.275000  0.075000  0.025000    576.000000
 -0.225000  0.075000  0.025000    576.000000
 -0.175000  0.075000  0.025000    576.000000
 -0.125000  0.075000  0.025000    576.000000
 -0.075000  0.075000  0.025000    576.000000
 -0.025000  0.075000  0.025000    576.000000
  0.125000  0.125000  0.025000    288.000000
  0.175000  0.125000  0.025000    576.000000
  0.225000  0.125000  0.025000    576.000000
  0.275000  0.125000  0.025000    576.000000
  0.325000  0.125000  0.025000    576.000000
  0.375000  0.125000  0.025000    576.000000
  0.425000  0.125000  0.025000    576.000000
  0.475000  0.125000  0.025000    576.000000
 -0.475000  0.125000  0.025000    576.000000
 -0.425000  0.125000  0.025000    576.000000
 -0.375000  0.125000  0.025000    576.000000
 -0.325000  0.125000  0.025000    576.000000
 -0.275000  0.125000  0.025000    576.000000
 -0.225000  0.125000  0.025000    576.000000
 -0.175000  0.125000  0.025000    576.000000
 -0.125000  0.125000  0.025000    576.000000
 -0.075000  0.125000  0.025000    576.000000
 -0.025000  0.125000  0.025000    576.000000
  0.175000  0.175000  0.025000    288.000000
  0.225000  0.175000  0.025000    576.000000
  0.275000  0.175000  0.025000    576.000000
[...]
 -0.425000  0.475000  0.375000    576.000000
 -0.375000  0.475000  0.375000    576.000000
 -0.475000 -0.475000  0.375000    288.000000
 -0.425000 -0.475000  0.375000    576.000000
 -0.425000 -0.425000  0.375000    288.000000
  0.425000  0.425000  0.425000     96.000000
  0.475000  0.425000  0.425000    288.000000
 -0.475000  0.425000  0.425000    288.000000
[...]
 k-point 94 :   0.4250 0.2750 0.0250  plane waves:      92
 k-point 95 :   0.4750 0.2750 0.0250  plane waves:      93
 k-point 96 :  -0.4750 0.2750 0.0250  plane waves:      94
 k-point 97 :  -0.4250 0.2750 0.0250  plane waves:      96
 k-point 98 :  -0.3750 0.2750 0.0250  plane waves:      95
 k-point 99 :  -0.3250 0.2750 0.0250  plane waves:      93
 k-point ** :  -0.2750 0.2750 0.0250  plane waves:      93
 k-point ** :  -0.2250 0.2750 0.0250  plane waves:      93
 k-point ** :  -0.1750 0.2750 0.0250  plane waves:      94
 k-point ** :  -0.1250 0.2750 0.0250  plane waves:      95
 k-point ** :  -0.0750 0.2750 0.0250  plane waves:      93
 k-point ** :  -0.0250 0.2750 0.0250  plane waves:      95
 k-point ** :   0.3250 0.3250 0.0250  plane waves:      88
 k-point ** :   0.3750 0.3250 0.0250  plane waves:      91
 k-point ** :   0.4250 0.3250 0.0250  plane waves:      93
 k-point ** :   0.4750 0.3250 0.0250  plane waves:      96
 k-point ** :  -0.4750 0.3250 0.0250  plane waves:      96
 k-point ** :  -0.4250 0.3250 0.0250  plane waves:      97
 k-point ** :  -0.3750 0.3250 0.0250  plane waves:      98
 k-point ** :  -0.3250 0.3250 0.0250  plane waves:      96
 k-point ** :  -0.2750 0.3250 0.0250  plane waves:      93
 k-point ** :  -0.2250 0.3250 0.0250  plane waves:      93
 k-point ** :  -0.1750 0.3250 0.0250  plane waves:      93
 k-point ** :  -0.1250 0.3250 0.0250  plane waves:      94
 k-point ** :  -0.0750 0.3250 0.0250  plane waves:      93
 k-point ** :  -0.0250 0.3250 0.0250  plane waves:      95
 k-point ** :   0.3750 0.3750 0.0250  plane waves:      88
 k-point ** :   0.4250 0.3750 0.0250  plane waves:      92
 k-point ** :   0.4750 0.3750 0.0250  plane waves:      94
 k-point ** :  -0.4750 0.3750 0.0250  plane waves:      98
 k-point ** :  -0.4250 0.3750 0.0250  plane waves:      98
 k-point ** :  -0.3750 0.3750 0.0250  plane waves:      99
 k-point ** :  -0.3250 0.3750 0.0250  plane waves:      99
 k-point ** :  -0.2750 0.3750 0.0250  plane waves:      94
 k-point ** :  -0.2250 0.3750 0.0250  plane waves:      94
 k-point ** :  -0.1750 0.3750 0.0250  plane waves:      94
 k-point ** :  -0.1250 0.3750 0.0250  plane waves:      91
 k-point ** :  -0.0750 0.3750 0.0250  plane waves:      93
 k-point ** :  -0.0250 0.3750 0.0250  plane waves:      95
 k-point ** :   0.4250 0.4250 0.0250  plane waves:      92
 k-point ** :   0.4750 0.4250 0.0250  plane waves:      92
 k-point ** :  -0.4750 0.4250 0.0250  plane waves:      95
 k-point ** :  -0.4250 0.4250 0.0250  plane waves:      96
 k-point ** :  -0.3750 0.4250 0.0250  plane waves:      98
 k-point ** :  -0.3250 0.4250 0.0250  plane waves:      99
 k-point ** :  -0.2750 0.4250 0.0250  plane waves:      96
 k-point ** :  -0.2250 0.4250 0.0250  plane waves:      96
 k-point ** :  -0.1750 0.4250 0.0250  plane waves:      93
 k-point ** :  -0.1250 0.4250 0.0250  plane waves:      92
 k-point ** :  -0.0750 0.4250 0.0250  plane waves:      94
 k-point ** :  -0.0250 0.4250 0.0250  plane waves:      93
 k-point ** :   0.4750 0.4750 0.0250  plane waves:      92
 k-point ** :  -0.4750 0.4750 0.0250  plane waves:      92
 k-point ** :  -0.4250 0.4750 0.0250  plane waves:      96
 k-point ** :  -0.3750 0.4750 0.0250  plane waves:      97
 k-point ** :  -0.3250 0.4750 0.0250  plane waves:      97
 k-point ** :  -0.2750 0.4750 0.0250  plane waves:      96
 k-point ** :  -0.2250 0.4750 0.0250  plane waves:      95
 k-point ** :  -0.1750 0.4750 0.0250  plane waves:      93
 k-point ** :  -0.1250 0.4750 0.0250  plane waves:      92
 k-point ** :  -0.0750 0.4750 0.0250  plane waves:      93
 k-point ** :  -0.0250 0.4750 0.0250  plane waves:      90
 k-point ** :  -0.4750-0.4750 0.0250  plane waves:      92
 k-point ** :  -0.4250-0.4750 0.0250  plane waves:      92
 k-point ** :  -0.3750-0.4750 0.0250  plane waves:      95
 k-point ** :  -0.3250-0.4750 0.0250  plane waves:      97
[...]
 k-point ** :  -0.4250 0.4750 0.3750  plane waves:      93
 k-point ** :  -0.3750 0.4750 0.3750  plane waves:      93
 k-point ** :  -0.4750-0.4750 0.3750  plane waves:      93
 k-point ** :  -0.4250-0.4750 0.3750  plane waves:      93
 k-point ** :  -0.4250-0.4250 0.3750  plane waves:      93
 k-point ** :   0.4250 0.4250 0.4250  plane waves:      93
 k-point ** :   0.4750 0.4250 0.4250  plane waves:      93
 k-point ** :  -0.4750 0.4250 0.4250  plane waves:      93
 k-point ** :  -0.4250 0.4250 0.4250  plane waves:      91
 k-point ** :   0.4750 0.4750 0.4250  plane waves:      92
 k-point ** :  -0.4750 0.4750 0.4250  plane waves:      93
 k-point ** :  -0.4250 0.4750 0.4250  plane waves:      94
 k-point ** :  -0.4750-0.4750 0.4250  plane waves:      93
 k-point ** :   0.4750 0.4750 0.4750  plane waves:      90
 k-point ** :  -0.4750 0.4750 0.4750  plane waves:      90

 maximum and minimum number of plane-waves per node :       101       87

 maximum number of plane-waves:       101
 maximum index in each direction:
   IXMAX=    3   IYMAX=    3   IZMAX=    3
   IXMIN=   -3   IYMIN=   -3   IZMIN=   -3

 serial   3D FFT for wavefunctions
 parallel 3D FFT for charge:
    minimum data exchange during FFTs selected (reduces bandwidth)

 Broyden mixing: mesh for mixing (old mesh)
   NGX =  7   NGY =  7   NGZ =  7
  (NGX  = 20   NGY  = 20   NGZ  = 20)
  gives a total of    343 points

 initial charge density was supplied:
 charge density of overlapping atoms calculated
 number of electron       8.0000000 magnetization       3.0000000
 keeping initial charge density in first step

 Maximum index for augmentation-charges         3589 (set IRDMAX)

 First call to EWALD:  gamma=   0.840
 Maximum number of real-space cells 3x 3x 3
 Maximum number of reciprocal cells 3x 3x 3

--------------------------------------- Iteration      1(   1)  ---------------------------------------

 eigenvalue-minimisations  : 34296
 total energy-change (2. order) : 0.6634526E+01  (-0.2773283E+03)
 number of electron       8.0000000 magnetization       3.0000000
 augmentation part        8.0000000 magnetization       3.0000000

 Free energy of the ion-electron system (eV)
  alpha Z        PSCENC =        71.25202565
  Ewald energy   TEWEN  =      -630.64872164
  -Hartree energ DENC   =       -96.94513039
  -exchange      EXHF   =         0.00000000
  -V(xc)+E(xc)   XCENC  =         6.11125962
  PAW double counting   =       478.07446770     -487.43411278
  entropy T*S    EENTRO =         0.00031055
  eigenvalues    EBANDS =        68.89407518
  atomic energy  EATOM  =       597.33035224
  Solvation  Ediel_sol  =         0.00000000
  free energy    TOTEN  =         6.63452613 eV

  energy without entropy =        6.63421557  energy(sigma->0) =        6.63442261

[...]

 eigenvalue-minimisations  : 31342
 total energy-change (2. order) :-0.1645715E+02  (-0.1530982E+02)
 number of electron       8.0000000 magnetization       3.0000000
 augmentation part        8.0000000 magnetization       3.0000000

[...]

 Broyden mixing:
  rms(total) = 0.11422E+01    rms(broyden)= 0.11421E+01
  rms(prec ) = 0.34579E+01
  weight for this iteration     100.00

[...]

 eigenvalues of (default mixing * dielectric matrix)
  average eigenvalue GAMMA=   1.0332
  1.0332

[...]

 Broyden mixing:
  rms(total) = 0.16187E-02    rms(broyden)= 0.12647E-02
  rms(prec ) = 0.17412E-02
  weight for this iteration     100.00
  WARNING: grid for Broyden might be to small

[...]

 average (electrostatic) potential at core
  the test charge radii are     1.0103
  (the norm of the test charge is              1.0000)
       1 -42.3006

 E-fermi :   7.6621     XC(G=0): -14.5494     alpha+bet :-16.4029

 spin component 1

 k-point     1 :       0.0250    0.0250    0.0250
  band No.  band energies     occupation
      1      -1.5669      1.00000
      2       5.7874      1.00000
      3       5.8081      1.00000
      4       5.8081      1.00000
      5       7.5832      0.80658
      6       7.5832      0.80658
      7      31.7628      0.00000
      8      37.4040      0.00000
      9      37.7905      0.00000
     10      37.7905      0.00000

[...]

 soft charge-density along one line, spin component           1
         0         1         2         3         4         5         6         7         8         9
 total charge-density along one line

[...]

------------------------ aborting loop because EDIFF is reached ----------------------------------------

  FORCE on cell =-STRESS in cart. coord.  units (eV):
  Direction    XX          YY          ZZ          XY          YZ          ZX
  Alpha Z    71.25203    71.25203    71.25203
  Ewald    -210.21625  -210.21625  -210.21625    -0.00000     0.00000     0.00000
  Hartree    26.73849    26.73849    26.73849     0.00000     0.00000     0.00000
  E(xc)     -39.54396   -39.54396   -39.54396    -0.00001    -0.00001    -0.00001
  Local      63.27988    63.27988    63.27988     0.00001     0.00001     0.00001
  n-local   -24.51376   -24.77488   -27.13286     1.14962    -1.14607    -0.00201
  augment    37.36219    37.36219    37.36219    -0.00003    -0.00003    -0.00003
  Kinetic    74.11740    77.65266    78.42026    -0.11667     0.11862     0.02477
  Fock        0.00000     0.00000     0.00000     0.00000     0.00000     0.00000
  Total       0.12865     0.12865     0.12865     0.00000     0.00000    -0.00000
  in kB      21.93025    21.93025    21.93025     0.00000     0.00000    -0.00000

 VOLUME and BASIS-vectors are now :
  energy-cutoff  :      267.97
  volume of cell :        9.40
      direct lattice vectors                 reciprocal lattice vectors
     0.000000000  1.675000000  1.675000000    -0.298507463  0.298507463  0.298507463
     1.675000000  0.000000000  1.675000000     0.298507463 -0.298507463  0.298507463
     1.675000000  1.675000000  0.000000000     0.298507463  0.298507463 -0.298507463

[...]

 FORCES acting on ions
    electron-ion (+dipol)            ewald-force                    non-local-force                 convergence-correction
   0.121E-13 0.896E-14 0.930E-14   -.720E-15 0.122E-14 0.280E-14   0.275E-25 0.162E-26 -.258E-25   -.218E-14 0.245E-13 0.724E-14
   0.121E-13 0.896E-14 0.930E-14   -.720E-15 0.122E-14 0.280E-14   0.275E-25 0.162E-26 -.258E-25   -.218E-14 0.245E-13 0.724E-14

 POSITION                                       TOTAL-FORCE (eV/Angst)
      0.00000      0.00000      0.00000         0.000000     -0.000000      0.000000
    total drift:                                0.000000      0.000000      0.000000

  FREE ENERGIE OF THE ION-ELECTRON SYSTEM (eV)
  free  energy   TOTEN  =        -9.32770319 eV

  energy  without entropy=       -9.32804259  energy(sigma->0) =       -9.32781633

[...]

 d Force = 0.0000000E+00[ 0.000E+00, 0.000E+00]  d Energy =-0.1987873E-02 0.199E-02
 d Force = 0.0000000E+00[ 0.000E+00, 0.000E+00]  d Ewald  =-0.3889905E+01 0.389E+01

 Steepest descent step on ions:
 trial-energy change:    0.001988  1 .order    0.001985   -0.002395    0.006364
  (g-gl).g = 0.240E-02      g.g   = 0.240E-02  gl.gl    = 0.000E+00
 g(Force)  = 0.563E-62   g(Stress)= 0.240E-02 ortho     = 0.000E+00
 gamma     =   0.00000
 trial     =   1.00000
 opt step  =   0.27345  (harmonic =   0.27345) maximal distance =0.00000000
 next E    =    -9.328031   (d E  =  -0.00033)

[...]

 eigenvalue-minimisations  : 32840
 total energy-change (2. order) :-0.1453076E-01  (-0.2883517E-01)
 number of electron       8.0000058 magnetization       0.0000454
 augmentation part        4.0397970 magnetization       0.0000356

[...]

 Broyden mixing:
  rms(total) = 0.81021E-03    rms(broyden)= 0.80999E-03
  rms(prec ) = 0.28680E-02
  weight for this iteration     100.00

 eigenvalues of (default mixing * dielectric matrix)
  average eigenvalue GAMMA=   1.6769
  2.4314  0.8142  1.7851

[...]

--------------------------------------- Iteration      3(   5)  ---------------------------------------

 eigenvalue-minimisations  : 29932
 total energy-change (2. order) : 0.8080970E-06  (-0.1611352E-06)
 number of electron       8.0000059 magnetization       0.0000084
 augmentation part        4.0894793 magnetization       0.0000069

 Free energy of the ion-electron system (eV)
  alpha Z        PSCENC =        70.89048220
  Ewald energy   TEWEN  =      -629.58024369
  -Hartree energ DENC   =       -80.55440409
  -exchange      EXHF   =         0.00000000
  -V(xc)+E(xc)   XCENC  =         4.01384150
  PAW double counting   =       558.63583533     -569.35253205
  entropy T*S    EENTRO =         0.00034291
  eigenvalues    EBANDS =        39.28829806
  atomic energy  EATOM  =       597.33035224
  Solvation  Ediel_sol  =         0.00000000
  free energy    TOTEN  =        -9.32802760 eV

  energy without entropy =       -9.32837051  energy(sigma->0) =       -9.32814190

 average (electrostatic) potential at core
  the test charge radii are     1.0103
  (the norm of the test charge is              1.0000)
       1 -42.3600

 E-fermi :   7.5972     XC(G=0): -14.5193     alpha+bet :-16.3197

[...]

 spin component 2

[...]

 k-point   770 :      -0.4750    0.4750    0.4750
  band No.  band energies     occupation
      1       2.3484      1.00000
      2       5.5691      1.00000
      3       5.7042      1.00000
      4       7.3691      1.03424
      5       8.7102     -0.00000
      6       9.3531     -0.00000
      7      16.8179      0.00000
      8      30.0195      0.00000
      9      34.9652      0.00000
     10      35.3659      0.00000

[...]

 soft charge-density along one line, spin component           2
         0         1         2         3         4         5         6         7         8         9
 total charge-density along one line

------------------------ aborting loop because EDIFF is reached ----------------------------------------

  FORCE on cell =-STRESS in cart. coord.  units (eV):
  Direction    XX          YY          ZZ          XY          YZ          ZX
  Alpha Z    70.89048    70.89048    70.89048
  Ewald    -209.86009  -209.86009  -209.86009     0.00000     0.00000    -0.00000
  Hartree    26.85676    26.85676    26.85676     0.00000     0.00000     0.00000
  E(xc)     -39.51193   -39.51193   -39.51193    -0.00001    -0.00001    -0.00001
  Local      63.16316    63.16316    63.16316     0.00000     0.00000     0.00000
  n-local   -24.62705   -24.91413   -27.23622     1.13910    -1.13550    -0.00212
  augment    37.38363    37.38363    37.38363    -0.00003    -0.00003    -0.00003
  Kinetic    74.04936    77.57424    78.34792    -0.11823     0.12016     0.02435
  Fock        0.00000     0.00000     0.00000     0.00000     0.00000     0.00000
  Total      -0.01328    -0.01328    -0.01328     0.00000     0.00000    -0.00000
  in kB      -2.25206    -2.25206    -2.25206     0.00000     0.00000    -0.00000

 VOLUME and BASIS-vectors are now :
  energy-cutoff  :      267.97
  volume of cell :        9.45
      direct lattice vectors                 reciprocal lattice vectors
     0.000000000  1.677842689  1.677842689    -0.298001716  0.298001716  0.298001716
     1.677842689  0.000000000  1.677842689     0.298001716 -0.298001716  0.298001716
     1.677842689  1.677842689  0.000000000     0.298001716  0.298001716 -0.298001716

  length of vectors
     2.372827886  2.372827886  2.372827886     0.516154112  0.516154112  0.516154112

 FORCES acting on ions
    electron-ion (+dipol)            ewald-force                    non-local-force                 convergence-correction
   0.853E-14 0.120E-13 0.141E-13   -.846E-17 0.120E-14 0.147E-15   0.000E+00 0.000E+00 0.358E-30   0.982E-14 0.251E-13 0.184E-13
   0.853E-14 0.120E-13 0.141E-13   -.846E-17 0.120E-14 0.147E-15   0.000E+00 0.000E+00 0.358E-30   0.982E-14 0.251E-13 0.184E-13

 POSITION                                       TOTAL-FORCE (eV/Angst)
      0.00000     -0.00000      0.00000         0.000000     -0.000000     -0.000000
    total drift:                                0.000000      0.000000      0.000000

  FREE ENERGIE OF THE ION-ELECTRON SYSTEM (eV)
  free  energy   TOTEN  =        -9.32802760 eV

  energy  without entropy=       -9.32837051  energy(sigma->0) =       -9.32814190

 d Force = 0.0000000E+00[ 0.000E+00, 0.000E+00]  d Energy = 0.2312278E-02-0.231E-02
 d Force = 0.0000000E+00[ 0.000E+00, 0.000E+00]  d Ewald  = 0.2821427E+01-0.282E+01

 reached required accuracy - stopping structural energy minimisation

volume of typ            1:    97.9 %

total charge

# of ion       s       p       d       tot
    1        0.489   0.585   6.317   7.391

magnetization (x)

[...]

orbital moment (x)

[...]

orbital moment (y)

[...]

orbital moment (z)

[...]

orbital moment (x)

[...]

orbital moment (y)

[...]

orbital moment (z)

# of ion     s             p             d             tot
    1     0.000000E+00  0.117031E-12 -0.175150E-12 -0.581186E-13