 vasp.5.4.4.18Apr17-6-g9f103f2a35 (build May 20 2018 16:52:39) complex

 executed on             LinuxIFC date 2022.10.29  10:50:23

 INCAR:
 POTCAR:    PAW Ni
 POTCAR:    PAW O
 POTCAR:    PAW Ni
   VRHFIN =Ni:

   TITEL  = PAW Ni
   POMASS =   58.690; ZVAL   =   10.000    mass and valenz
   ENMAX  =  269.561; ENMIN  =  202.171 eV
   QCUT   =   -4.451; QGAM   =    8.902    optimization parameters

   Description
     l     E      TYP  RCUT    TYP  RCUT
     2   .000     23  2.300
     2   .000     23  2.300
     0   .000     23  2.300
     0   .000     23  2.300
     1  -.200     23  2.300
     1   .000     23  2.300
     3   .000      7   .000

 POTCAR:    PAW O
   VRHFIN =O: s2p4

   TITEL  = PAW O
   POMASS =   16.000; ZVAL   =    6.000    mass and valenz
   ENMAX  =  400.000; ENMIN  =  300.000 eV
   QCUT   =   -5.520; QGAM   =   11.040    optimization parameters

   Description
     l     E      TYP  RCUT    TYP  RCUT
     0   .000     23  1.200
     0  -.700     23  1.200
     1   .000     23  1.520
     1   .600     23  1.520
     2   .000      7  1.500

  PAW Ni                                :
  PAW O                                 :

 POSCAR: NiO AFM
  positions in cartesian coordinates
  velocities in cartesian coordinates
 exchange correlation table for  LEXCH =        7
   RHO(1)=    0.500       N(1)  =     2000
   RHO(2)=  100.500       N(2)  =     4000

 ion  position               nearest neighbor table
   1  0.000  0.000  0.000-   4 2.08   4 2.08   4 2.08   3 2.08   3 2.08   3 2.08   2 2.95   2 2.95
                             2 2.95   2 2.95   2 2.95   2 2.95
   2  0.500  0.500  0.500-   3 2.08   3 2.08   3 2.08   4 2.08   4 2.08   4 2.08   1 2.95   1 2.95
                             1 2.95   1 2.95   1 2.95   1 2.95
   3  0.250  0.250  0.250-   1 2.08   1 2.08   1 2.08   2 2.08   2 2.08   2 2.08
   4  0.750  0.750  0.750-   2 2.08   2 2.08   2 2.08   1 2.08   1 2.08   1 2.08

  LATTYP: Found a trigonal (rhomboedric) cell.
 ALAT       =     5.1071861137
 COS(alpha) =     0.8333333333

  Lattice vectors:

 A1 = (   4.1700000000,   2.0850000000,   2.0850000000)
 A2 = (   2.0850000000,   4.1700000000,   2.0850000000)
 A3 = (   2.0850000000,   2.0850000000,   4.1700000000)

Analysis of symmetry for initial positions (statically):
 Subroutine PRICEL returns following result:

  LATTYP: Found a face centered cubic cell.
 ALAT       =     4.1700000000

[...]

   2 primitive cells build up your supercell.

 Routine SETGRP: Setting up the symmetry group for a
 trigonal (rhombohedral) supercell.

 Subroutine GETGRP returns: Found 12 space group operations
 (whereof 12 operations were pure point group operations)
 out of a pool of 12 trial point group operations.

The static configuration has the point symmetry D_3d.

Analysis of symmetry for dynamics (positions and initial velocities):
 Subroutine PRICEL returns following result:

  LATTYP: Found a face centered cubic cell.
 ALAT       =     4.1700000000

  Lattice vectors:

 A1 = (   2.0850000000,   0.0000000000,  -2.0850000000)
 A2 = (   0.0000000000,   2.0850000000,  -2.0850000000)
 A3 = (   2.0850000000,   2.0850000000,   0.0000000000)

   2 primitive cells build up your supercell.

 Routine SETGRP: Setting up the symmetry group for a
 trigonal (rhombohedral) supercell.

 Subroutine GETGRP returns: Found 12 space group operations
 (whereof 12 operations were pure point group operations)
 out of a pool of 12 trial point group operations.

The dynamic configuration has the point symmetry D_3d.

 Subroutine INISYM returns: Found 12 space group operations
 (whereof 12 operations are pure point group operations),
 and found     2 'primitive' translations

 KPOINTS: 10x10x10

Automatic generation of k-mesh.
Space group operators:
 irot       det(A)        alpha          n_x          n_y          n_z        tau_x        tau_y        tau_z
    1     1.000000     0.000000     1.000000     0.000000     0.000000     0.000000     0.000000     0.000000
    2    -1.000000     0.000000     1.000000     0.000000     0.000000     0.000000     0.000000     0.000000
    3     1.000000   180.000000     0.000000     0.707107    -0.707107     0.000000     0.000000     0.000000
    4    -1.000000   180.000000     0.000000     0.707107    -0.707107     0.000000     0.000000     0.000000
    5     1.000000   120.000000    -0.577350    -0.577350    -0.577350     0.000000     0.000000     0.000000
    6    -1.000000   120.000000    -0.577350    -0.577350    -0.577350     0.000000     0.000000     0.000000
    7     1.000000   180.000000     0.707107    -0.707107     0.000000     0.000000     0.000000     0.000000
    8    -1.000000   180.000000     0.707107    -0.707107     0.000000     0.000000     0.000000     0.000000
    9     1.000000   120.000000     0.577350     0.577350     0.577350     0.000000     0.000000     0.000000
   10    -1.000000   120.000000     0.577350     0.577350     0.577350     0.000000     0.000000     0.000000
   11     1.000000   180.000000     0.707107     0.000000    -0.707107     0.000000     0.000000     0.000000
   12    -1.000000   180.000000     0.707107     0.000000    -0.707107     0.000000     0.000000     0.000000

 Subroutine IBZKPT returns following result:

 Found    110 irreducible k-points:

 Following reciprocal coordinates:
            Coordinates               Weight
  0.050000  0.050000  0.050000      2.000000
  0.150000  0.050000  0.050000      6.000000
  0.250000  0.050000  0.050000      6.000000
  0.350000  0.050000  0.050000      6.000000
  0.450000  0.050000  0.050000      6.000000
 -0.450000  0.050000  0.050000      6.000000
 -0.350000  0.050000  0.050000      6.000000
 -0.250000  0.050000  0.050000      6.000000
 -0.150000  0.050000  0.050000      6.000000
 -0.050000  0.050000  0.050000      6.000000
  0.150000  0.150000  0.050000      6.000000
  0.250000  0.150000  0.050000     12.000000
  0.350000  0.150000  0.050000     12.000000
  0.450000  0.150000  0.050000     12.000000
 -0.450000  0.150000  0.050000     12.000000
 -0.350000  0.150000  0.050000     12.000000
 -0.250000  0.150000  0.050000     12.000000
 -0.150000  0.150000  0.050000     12.000000
 -0.050000  0.150000  0.050000     12.000000
  0.250000  0.250000  0.050000      6.000000
  0.350000  0.250000  0.050000     12.000000
  0.450000  0.250000  0.050000     12.000000
 -0.450000  0.250000  0.050000     12.000000
 -0.350000  0.250000  0.050000     12.000000
 -0.250000  0.250000  0.050000     12.000000
 -0.150000  0.250000  0.050000     12.000000
 -0.050000  0.250000  0.050000     12.000000
  0.350000  0.350000  0.050000      6.000000
  0.450000  0.350000  0.050000     12.000000
 -0.450000  0.350000  0.050000     12.000000
 -0.350000  0.350000  0.050000     12.000000
 -0.250000  0.350000  0.050000     12.000000
 -0.150000  0.350000  0.050000     12.000000
 -0.050000  0.350000  0.050000     12.000000
  0.450000  0.450000  0.050000      6.000000
 -0.450000  0.450000  0.050000     12.000000
 -0.350000  0.450000  0.050000     12.000000
 -0.250000  0.450000  0.050000     12.000000
 -0.150000  0.450000  0.050000     12.000000
 -0.050000  0.450000  0.050000     12.000000
 -0.450000 -0.450000  0.050000      6.000000
 -0.350000 -0.450000  0.050000     12.000000
 -0.250000 -0.450000  0.050000     12.000000
 -0.150000 -0.450000  0.050000     12.000000
 -0.350000 -0.350000  0.050000      6.000000
 -0.250000 -0.350000  0.050000     12.000000
 -0.150000 -0.350000  0.050000     12.000000
 -0.250000 -0.250000  0.050000      6.000000
 -0.150000 -0.250000  0.050000     12.000000
 -0.150000 -0.150000  0.050000      6.000000
  0.150000  0.150000  0.150000      2.000000
  0.250000  0.150000  0.150000      6.000000
  0.350000  0.150000  0.150000      6.000000
  0.450000  0.150000  0.150000      6.000000
 -0.450000  0.150000  0.150000      6.000000
 -0.350000  0.150000  0.150000      6.000000
 -0.250000  0.150000  0.150000      6.000000
 -0.150000  0.150000  0.150000      6.000000
  0.250000  0.250000  0.150000      6.000000
  0.350000  0.250000  0.150000     12.000000
[...]
 -0.350000  0.450000  0.250000     12.000000
 -0.250000  0.450000  0.250000     12.000000
 -0.450000 -0.450000  0.250000      6.000000
 -0.350000 -0.450000  0.250000     12.000000
 -0.350000 -0.350000  0.250000      6.000000
  0.350000  0.350000  0.350000      2.000000
  0.450000  0.350000  0.350000      6.000000
 -0.450000  0.350000  0.350000      6.000000
 -0.350000  0.350000  0.350000      6.000000
  0.450000  0.450000  0.350000      6.000000
 -0.450000  0.450000  0.350000     12.000000
 -0.350000  0.450000  0.350000     12.000000
 -0.450000 -0.450000  0.350000      6.000000
  0.450000  0.450000  0.450000      2.000000
 -0.450000  0.450000  0.450000      6.000000

 Following cartesian coordinates:
            Coordinates               Weight
  0.025000  0.025000  0.025000      2.000000
  0.175000 -0.025000 -0.025000      6.000000
  0.325000 -0.075000 -0.075000      6.000000
  0.475000 -0.125000 -0.125000      6.000000
  0.625000 -0.175000 -0.175000      6.000000
 -0.725000  0.275000  0.275000      6.000000
 -0.575000  0.225000  0.225000      6.000000
 -0.425000  0.175000  0.175000      6.000000
 -0.275000  0.125000  0.125000      6.000000
 -0.125000  0.075000  0.075000      6.000000
  0.125000  0.125000 -0.075000      6.000000
  0.275000  0.075000 -0.125000     12.000000
  0.425000  0.025000 -0.175000     12.000000
  0.575000 -0.025000 -0.225000     12.000000
 -0.775000  0.425000  0.225000     12.000000
 -0.625000  0.375000  0.175000     12.000000
 -0.475000  0.325000  0.125000     12.000000
 -0.325000  0.275000  0.075000     12.000000
 -0.175000  0.225000  0.025000     12.000000
  0.225000  0.225000 -0.175000      6.000000
  0.375000  0.175000 -0.225000     12.000000
  0.525000  0.125000 -0.275000     12.000000
 -0.825000  0.575000  0.175000     12.000000
 -0.675000  0.525000  0.125000     12.000000
 -0.525000  0.475000  0.075000     12.000000
 -0.375000  0.425000  0.025000     12.000000
 -0.225000  0.375000 -0.025000     12.000000
  0.325000  0.325000 -0.275000      6.000000
  0.475000  0.275000 -0.325000     12.000000
 -0.875000  0.725000  0.125000     12.000000
 -0.725000  0.675000  0.075000     12.000000
 -0.575000  0.625000  0.025000     12.000000
 -0.425000  0.575000 -0.025000     12.000000
 -0.275000  0.525000 -0.075000     12.000000
  0.425000  0.425000 -0.375000      6.000000
 -0.925000  0.875000  0.075000     12.000000
 -0.775000  0.825000  0.025000     12.000000
 -0.625000  0.775000 -0.025000     12.000000
 -0.475000  0.725000 -0.075000     12.000000
 -0.325000  0.675000 -0.125000     12.000000
 -0.475000 -0.475000  0.525000      6.000000
 -0.325000 -0.525000  0.475000     12.000000
 -0.175000 -0.575000  0.425000     12.000000
 -0.025000 -0.625000  0.375000     12.000000
 -0.375000 -0.375000  0.425000      6.000000
 -0.225000 -0.425000  0.375000     12.000000
 -0.075000 -0.475000  0.325000     12.000000
 -0.275000 -0.275000  0.325000      6.000000
 -0.125000 -0.325000  0.275000     12.000000
 -0.175000 -0.175000  0.225000      6.000000
  0.075000  0.075000  0.075000      2.000000
  0.225000  0.025000  0.025000      6.000000
  0.375000 -0.025000 -0.025000      6.000000
[...]
 k-point 40 :  -0.0500 0.4500 0.0500  plane waves:     658
 k-point 41 :  -0.4500-0.4500 0.0500  plane waves:     670
 k-point 42 :  -0.3500-0.4500 0.0500  plane waves:     662
 k-point 43 :  -0.2500-0.4500 0.0500  plane waves:     661
 k-point 44 :  -0.1500-0.4500 0.0500  plane waves:     655
 k-point 45 :  -0.3500-0.3500 0.0500  plane waves:     659
 k-point 46 :  -0.2500-0.3500 0.0500  plane waves:     660
 k-point 47 :  -0.1500-0.3500 0.0500  plane waves:     659
 k-point 48 :  -0.2500-0.2500 0.0500  plane waves:     659
 k-point 49 :  -0.1500-0.2500 0.0500  plane waves:     655
 k-point 50 :  -0.1500-0.1500 0.0500  plane waves:     649
 k-point 51 :   0.1500 0.1500 0.1500  plane waves:     664
 k-point 52 :   0.2500 0.1500 0.1500  plane waves:     657
 k-point 53 :   0.3500 0.1500 0.1500  plane waves:     660
 k-point 54 :   0.4500 0.1500 0.1500  plane waves:     660
 k-point 55 :  -0.4500 0.1500 0.1500  plane waves:     665
 k-point 56 :  -0.3500 0.1500 0.1500  plane waves:     661
 k-point 57 :  -0.2500 0.1500 0.1500  plane waves:     659
 k-point 58 :  -0.1500 0.1500 0.1500  plane waves:     659
 k-point 59 :   0.2500 0.2500 0.1500  plane waves:     660
 k-point 60 :   0.3500 0.2500 0.1500  plane waves:     653
[...]
 k-point 85 :   0.4500 0.2500 0.2500  plane waves:     658
 k-point 86 :  -0.4500 0.2500 0.2500  plane waves:     656
 k-point 87 :  -0.3500 0.2500 0.2500  plane waves:     659
 k-point 88 :  -0.2500 0.2500 0.2500  plane waves:     661
 k-point 89 :   0.3500 0.3500 0.2500  plane waves:     655
 k-point 90 :   0.4500 0.3500 0.2500  plane waves:     654
 k-point 91 :  -0.4500 0.3500 0.2500  plane waves:     651
 k-point 92 :  -0.3500 0.3500 0.2500  plane waves:     657
 k-point 93 :  -0.2500 0.3500 0.2500  plane waves:     659
 k-point 94 :   0.4500 0.4500 0.2500  plane waves:     652
 k-point 95 :  -0.4500 0.4500 0.2500  plane waves:     656
 k-point 96 :  -0.3500 0.4500 0.2500  plane waves:     654
 k-point 97 :  -0.2500 0.4500 0.2500  plane waves:     658
 k-point 98 :  -0.4500-0.4500 0.2500  plane waves:     657
 k-point 99 :  -0.3500-0.4500 0.2500  plane waves:     657
 k-point ** :  -0.3500-0.3500 0.2500  plane waves:     658
 k-point ** :   0.3500 0.3500 0.3500  plane waves:     658
 k-point ** :   0.4500 0.3500 0.3500  plane waves:     647
 k-point ** :  -0.4500 0.3500 0.3500  plane waves:     656
 k-point ** :  -0.3500 0.3500 0.3500  plane waves:     652
 k-point ** :   0.4500 0.4500 0.3500  plane waves:     653
 k-point ** :  -0.4500 0.4500 0.3500  plane waves:     653
 k-point ** :  -0.3500 0.4500 0.3500  plane waves:     656
 k-point ** :  -0.4500-0.4500 0.3500  plane waves:     650
 k-point ** :   0.4500 0.4500 0.4500  plane waves:     649
 k-point ** :  -0.4500 0.4500 0.4500  plane waves:     655

 maximum and minimum number of plane-waves per node :       670      647

 maximum number of plane-waves:       670
 maximum index in each direction:
   IXMAX=    8   IYMAX=    8   IZMAX=    8
   IXMIN=   -8   IYMIN=   -8   IZMIN=   -8

 serial   3D FFT for wavefunctions
 parallel 3D FFT for charge:
    minimum data exchange during FFTs selected (reduces bandwidth)

 Broyden mixing: mesh for mixing (old mesh)
   NGX = 17   NGY = 17   NGZ = 17
  (NGX  = 56   NGY  = 56   NGZ  = 56)
  gives a total of   4913 points

 initial charge density was supplied:
 charge density of overlapping atoms calculated
 number of electron      32.0000000 magnetization
 keeping initial charge density in first step

 Maximum index for augmentation-charges        19063 (set IRDMAX)

 First call to EWALD:  gamma=   0.536
 Maximum number of real-space cells 3x 3x 3
 Maximum number of reciprocal cells 4x 4x 4

--------------------------------------- Iteration      1(   1)  ---------------------------------------

 eigenvalue-minimisations  :  4528
 total energy-change (2. order) : 0.2291291E+03  (-0.1405126E+04)
 number of electron      32.0000000 magnetization
 augmentation part       32.0000000 magnetization

 Free energy of the ion-electron system (eV)
  alpha Z        PSCENC =       217.71629331
  Ewald energy   TEWEN  =     -2604.77031634
  -Hartree energ DENC   =      -652.85252222
  -exchange      EXHF   =         0.00000000
  -V(xc)+E(xc)   XCENC  =       118.01085871
  PAW double counting   =      2235.52322886    -2373.86065358
  entropy T*S    EENTRO =        -0.00511738
  eigenvalues    EBANDS =       264.62482525
  atomic energy  EATOM  =      3024.74254395
  Solvation  Ediel_sol  =         0.00000000
  free energy    TOTEN  =       229.12914056 eV

  energy without entropy =      229.13425794  energy(sigma->0) =      229.13084635

[...]

 eigenvalue-minimisations  :  4512
 total energy-change (2. order) :-0.2307426E+03  (-0.2168348E+03)
 number of electron      32.0000000 magnetization
 augmentation part       32.0000000 magnetization

[...]

 Broyden mixing:
  rms(total) = 0.14281E+01    rms(broyden)= 0.14258E+01
  rms(prec ) = 0.30084E+01
  weight for this iteration     100.00

[...]

 eigenvalues of (default mixing * dielectric matrix)
  average eigenvalue GAMMA=   0.5014
  0.5014

[...]

 average (electrostatic) potential at core
  the test charge radii are     0.9791  0.7215
  (the norm of the test charge is              1.0000)
       1 -42.2357       2 -42.2357       3 -72.2741       4 -72.2741

 E-fermi :   5.0744     XC(G=0): -12.7604     alpha+bet :-11.2748

 k-point     1 :       0.0500    0.0500    0.0500
  band No.  band energies     occupation
      1     -15.3150      2.00000
      2     -13.9681      2.00000
      3      -3.0332      2.00000
      4      -0.3238      2.00000
      5      -0.3238      2.00000
      6       1.9313      2.00000
      7       1.9553      2.00000
      8       1.9553      2.00000
      9       3.2877      2.00000
     10       3.2877      2.00000
     11       3.3002      2.00000
     12       3.5774      2.00000
     13       3.5774      2.00000
     14       4.1000      2.00000
     15       4.1000      2.00000
     16       4.4695      2.00016
     17       6.3674     -0.00000
     18       6.3674     -0.00000
     19       6.8928     -0.00000
     20      10.8733      0.00000

[...]

 soft charge-density along one line, spin component           1
         0         1         2         3         4         5         6         7         8         9
 total charge-density along one line

------------------------ aborting loop because EDIFF is reached ----------------------------------------

  FORCE on cell =-STRESS in cart. coord.  units (eV):
  Direction    XX          YY          ZZ          XY          YZ          ZX
  Alpha Z   217.71629   217.71629   217.71629
  Ewald    -868.25805  -868.25805  -868.25805     0.00000    -0.00000    -0.00000
  Hartree   212.93593   212.93593   212.93593     0.00983     0.00983     0.00983
  E(xc)    -170.35691  -170.35691  -170.35691     0.00008     0.00008     0.00008
  Local     187.09942   187.09942   187.09942    -0.04190    -0.04190    -0.04190
  n-local  -112.83850  -114.83856  -112.53104     0.02292    -0.10663     0.04562
  augment   116.32641   116.32641   116.32641     0.00857     0.00857     0.00857
  Kinetic   415.19651   417.89890   415.59152    -0.17376     0.48522    -0.17502
  Fock        0.00000     0.00000     0.00000     0.00000     0.00000     0.00000
  Total      -1.71062    -1.71062    -1.71062     0.01243     0.01243     0.01243
  in kB     -75.59398   -75.59398   -75.59398     0.54932     0.54932     0.54932

 VOLUME and BASIS-vectors are now :
  energy-cutoff  :      400.00
  volume of cell :       36.26
      direct lattice vectors                 reciprocal lattice vectors
     4.170000000  2.085000000  2.085000000     0.359712230 -0.119904077 -0.119904077
     2.085000000  4.170000000  2.085000000    -0.119904077  0.359712230 -0.119904077
     2.085000000  2.085000000  4.170000000    -0.119904077 -0.119904077  0.359712230

[...]

 FORCES acting on ions
    electron-ion (+dipol)            ewald-force                    non-local-force                 convergence-correction
   -.688E-13 -.793E-13 -.747E-13   0.000E+00 -.284E-13 -.568E-13   0.455E-23 0.579E-23 -.827E-24   -.169E-13 -.954E-14 -.197E-13
   0.727E-12 0.209E-11 0.210E-11   0.568E-13 0.284E-13 0.000E+00   0.827E-24 0.248E-23 0.331E-23   0.599E-14 0.136E-13 0.101E-13
   -.451E-12 0.644E-12 0.642E-12   -.426E-13 -.131E-13 0.169E-13   0.331E-23 -.331E-23 0.000E+00   0.123E-13 0.336E-14 0.284E-14
   0.242E-11 -.941E-12 -.944E-12   -.152E-13 0.134E-13 0.426E-13   -.414E-24 -.414E-24 -.827E-24   0.126E-13 0.123E-13 0.253E-13
   0.263E-11 0.171E-11 0.172E-11   -.869E-15 0.280E-15 0.262E-14   0.827E-23 0.455E-23 0.165E-23   0.140E-13 0.198E-13 0.185E-13

 POSITION                                       TOTAL-FORCE (eV/Angst)
      0.00000      0.00000      0.00000         0.000000      0.000000      0.000000
      4.17000      4.17000      4.17000        -0.000000      0.000000      0.000000
      2.08500      2.08500      2.08500        -0.000000     -0.000000     -0.000000
      6.25500      6.25500      6.25500         0.000000     -0.000000     -0.000000
    total drift:                                0.000000      0.000000      0.000000

  FREE ENERGIE OF THE ION-ELECTRON SYSTEM (eV)
  free  energy   TOTEN  =       -22.91383003 eV

  energy  without entropy=      -22.91690610  energy(sigma->0) =      -22.91485539

[...]

 d Force = 0.0000000E+00[ 0.000E+00, 0.000E+00]  d Energy =-0.4861307E-02 0.486E-02
 d Force = 0.0000000E+00[ 0.000E+00, 0.000E+00]  d Ewald  = 0.5487189E+02-0.549E+02

 Steepest descent step on ions:
 trial-energy change:    0.004861  1 .order    0.006426   -0.105888    0.118741
  (g-gl).g = 0.106E+00      g.g   = 0.106E+00  gl.gl    = 0.000E+00
 g(Force)  = 0.291E-57   g(Stress)= 0.106E+00 ortho     = 0.000E+00
 gamma     =   0.00000
 trial     =   1.00000
 opt step  =   0.48183  (harmonic =   0.47139) maximal distance =0.00000000
 next E    =   -22.939515   (d E  =  -0.02569)

[...]

 d Force = 0.0000000E+00[ 0.000E+00, 0.000E+00]  d Energy = 0.3088370E-01-0.309E-01
 d Force = 0.0000000E+00[ 0.000E+00, 0.000E+00]  d Ewald  =-0.2871855E+02 0.287E+02

[...]

 d Force = 0.0000000E+00[ 0.000E+00, 0.000E+00]  d Energy = 0.9272374E-05-0.927E-05
 d Force = 0.0000000E+00[ 0.000E+00, 0.000E+00]  d Ewald  = 0.1879277E-01-0.188E-01

 Conjugate gradient step on ions:
 trial-energy change:   -0.000009  1 .order   -0.000011   -0.000011   -0.000010
  (g-gl).g =-0.202E-02      g.g   = 0.521E-04  gl.gl    = 0.106E+00
 g(Force)  = 0.190E-57   g(Stress)= 0.521E-04 ortho     = 0.207E-02
 gamma     =  -0.01906
 trial     =   0.89637
 opt step  =   3.58546  (harmonic =   6.51176) maximal distance =0.00000000
 next E    =   -22.939893   (d E  =  -0.00004)

[...]

 eigenvalue-minimisations  :  4608
 total energy-change (2. order) :-0.1268912E-03  (-0.7276500E-03)
 number of electron      32.0000011 magnetization
 augmentation part       13.7887468 magnetization

[...]

 Broyden mixing:
  rms(total) = 0.40491E-03    rms(broyden)= 0.40371E-03
  rms(prec ) = 0.62308E-03
  weight for this iteration     100.00

 eigenvalues of (default mixing * dielectric matrix)
  average eigenvalue GAMMA=   1.3410
  2.2645  1.2162  0.5423

[...]

--------------------------------------- Iteration      5(   5)  ---------------------------------------

 eigenvalue-minimisations  :  3472
 total energy-change (2. order) : 0.1446065E-06  (-0.3120429E-06)
 number of electron      32.0000011 magnetization
 augmentation part       13.7895935 magnetization

 Free energy of the ion-electron system (eV)
  alpha Z        PSCENC =       224.35966333
  Ewald energy   TEWEN  =     -2630.99971915
  -Hartree energ DENC   =      -626.94264336
  -exchange      EXHF   =         0.00000000
  -V(xc)+E(xc)   XCENC  =       118.41093355
  PAW double counting   =      2379.07927681    -2521.70135606
  entropy T*S    EENTRO =         0.00236041
  eigenvalues    EBANDS =        10.10906939
  atomic energy  EATOM  =      3024.74254395
  Solvation  Ediel_sol  =         0.00000000
  free energy    TOTEN  =       -22.93987113 eV

  energy without entropy =      -22.94223154  energy(sigma->0) =      -22.94065793

 average (electrostatic) potential at core
  the test charge radii are     0.9791  0.7215
  (the norm of the test charge is              1.0000)
       1 -41.9185       2 -41.9185       3 -72.0032       4 -72.0032

 E-fermi :   5.4589     XC(G=0): -12.9362     alpha+bet :-11.6189

[...]

 k-point   110 :      -0.4500    0.4500    0.4500
  band No.  band energies     occupation
      1     -14.5405      2.00000
      2     -14.4663      2.00000
      3      -1.0824      2.00000
      4      -0.9012      2.00000
      5       0.4273      2.00000
      6       0.6209      2.00000
      7       0.6870      2.00000
      8       0.8759      2.00000
      9       3.6836      2.00000
     10       3.9328      2.00000
     11       4.0919      2.00000
     12       4.1318      2.00000
     13       4.3639      2.00000
     14       4.3894      2.00000
     15       5.0982      2.02861
     16       5.1342      2.04399
     17       5.7557     -0.05669
     18       6.1778     -0.00000
     19      10.4344     -0.00000
     20      10.5760     -0.00000

 soft charge-density along one line, spin component           1
         0         1         2         3         4         5         6         7         8         9
 total charge-density along one line

------------------------ aborting loop because EDIFF is reached ----------------------------------------

  FORCE on cell =-STRESS in cart. coord.  units (eV):
  Direction    XX          YY          ZZ          XY          YZ          ZX
  Alpha Z   224.35966   224.35966   224.35966
  Ewald    -877.00120  -877.00120  -877.00120     0.27658     0.27658     0.27658
  Hartree   208.97978   208.97978   208.97978     0.13814     0.13814     0.13814
  E(xc)    -170.69530  -170.69530  -170.69530     0.00139     0.00139     0.00139
  Local     193.38396   193.38396   193.38396    -0.41582    -0.41582    -0.41582
  n-local  -112.20252  -114.38474  -111.97809     0.02976    -0.11407     0.06514
  augment   116.29597   116.29597   116.29597    -0.00142    -0.00142    -0.00142
  Kinetic   416.38647   419.31931   416.87016    -0.21525     0.46826    -0.24557
  Fock        0.00000     0.00000     0.00000     0.00000     0.00000     0.00000
  Total      -0.00693    -0.00693    -0.00693    -0.00215    -0.00215    -0.00215
  in kB      -0.31548    -0.31548    -0.31548    -0.09771    -0.09771    -0.09771

 VOLUME and BASIS-vectors are now :
  energy-cutoff  :      400.00
  volume of cell :       35.18
      direct lattice vectors                 reciprocal lattice vectors
     4.130992567  2.068058715  2.068058715     0.363484763 -0.121261754 -0.121261754
     2.068058715  4.130992567  2.068058715    -0.121261754  0.363484763 -0.121261754
     2.068058715  2.068058715  4.130992567    -0.121261754 -0.121261754  0.363484763

  length of vectors
     5.061505042  5.061505042  5.061505042     0.401907948  0.401907948  0.401907948

 FORCES acting on ions
    electron-ion (+dipol)            ewald-force                    non-local-force                 convergence-correction
   -.733E-13 -.747E-13 -.742E-13   0.284E-13 -.284E-13 -.568E-13   0.646E-25 -.129E-25 -.388E-25   -.183E-13 -.187E-13 0.557E-14
   0.736E-12 0.208E-11 0.208E-11   0.853E-13 0.284E-13 0.000E+00   -.452E-25 -.194E-25 0.129E-25   -.806E-15 -.170E-13 -.148E-13
   -.479E-12 0.614E-12 0.616E-12   -.720E-13 -.126E-13 0.141E-13   0.414E-24 0.103E-24 -.207E-24   0.399E-13 0.266E-13 0.371E-13
   0.243E-11 -.924E-12 -.924E-12   -.436E-13 0.133E-13 0.403E-13   -.310E-24 0.207E-24 0.620E-24   -.231E-13 -.126E-13 -.119E-13
   0.262E-11 0.170E-11 0.170E-11   -.190E-14 0.697E-15 -.246E-14   0.123E-24 0.278E-24 0.388E-24   -.233E-14 -.217E-13 0.160E-13

 POSITION                                       TOTAL-FORCE (eV/Angst)
      0.00000      0.00000      0.00000         0.000000     -0.000000      0.000000
      4.13355      4.13355      4.13355         0.000000     -0.000000      0.000000
      2.06678      2.06678      2.06678        -0.000000      0.000000     -0.000000
      6.20033      6.20033      6.20033        -0.000000      0.000000     -0.000000
    total drift:                                0.000000      0.000000      0.000000

  FREE ENERGIE OF THE ION-ELECTRON SYSTEM (eV)
  free  energy   TOTEN  =       -22.93987113 eV

  energy  without entropy=      -22.94223154  energy(sigma->0) =      -22.94065793

 d Force = 0.0000000E+00[ 0.000E+00, 0.000E+00]  d Energy = 0.9428200E-05-0.943E-05
 d Force = 0.0000000E+00[ 0.000E+00, 0.000E+00]  d Ewald  = 0.5727215E-01-0.573E-01

 reached required accuracy - stopping structural energy minimisation