 vasp.5.4.4.18Apr17-6-g9f103f2a35 (build May 20 2018 16:52:39) complex

 executed on             LinuxIFC date 2022.09.19  17:04:59

 INCAR:
 POTCAR:   PAW Au 04Feb1998
 POTCAR:   PAW Au 04Feb1998
   VRHFIN =Au: s1d10

   TITEL  = PAW Au 04Feb1998
   POMASS =  196.966; ZVAL   =   11.000    mass and valenz
   ENMAX  =  229.869; ENMIN  =  172.402 eV
   QCUT   =   -4.110; QGAM   =    8.221    optimization parameters

   Description
     l     E      TYP  RCUT    TYP  RCUT
     2   .000     23  2.500
     2   .000     23  2.500
     0   .000     23  2.500
     0   .000     23  2.500
     1  -.200     23  2.500
     1   .000     23  2.500
     3   .000      7   .000

 PAW Au 04Feb1998                       :

 POSCAR: Au bulk FCC
  positions in direct lattice
 exchange correlation table for  LEXCH =        2
   RHO(1)=    0.500       N(1)  =     2000
   RHO(2)=  100.500       N(2)  =     4000

 ion  position               nearest neighbor table
   1  0.000  0.000  0.000-

  LATTYP: Found a face centered cubic cell.
 ALAT       =     4.0800000000

  Lattice vectors:

 A1 = (   0.0000000000,   2.0400000000,   2.0400000000)
 A2 = (   2.0400000000,   0.0000000000,   2.0400000000)
 A3 = (   2.0400000000,   2.0400000000,   0.0000000000)

Analysis of symmetry for initial positions (statically):
 Subroutine PRICEL returns:
 Original cell was already a primitive cell.

 Routine SETGRP: Setting up the symmetry group for a
 face centered cubic supercell.

 Subroutine GETGRP returns: Found 48 space group operations
 (whereof 48 operations were pure point group operations)
 out of a pool of 48 trial point group operations.

The static configuration has the point symmetry O_h .

Analysis of symmetry for dynamics (positions and initial velocities):
 Subroutine PRICEL returns:
 Original cell was already a primitive cell.

 Routine SETGRP: Setting up the symmetry group for a
 face centered cubic supercell.

 Subroutine GETGRP returns: Found 48 space group operations
 (whereof 48 operations were pure point group operations)
 out of a pool of 48 trial point group operations.

The dynamic configuration has the point symmetry O_h .

 Subroutine INISYM returns: Found 48 space group operations
 (whereof 48 operations are pure point group operations),
 and found     1 'primitive' translations

 KPOINTS: K-points along high symmetry lines for F
  interpolating k-points between supplied coordinates
  k-points in reciprocal lattice
Space group operators:
 irot       det(A)        alpha          n_x          n_y          n_z        tau_x        tau_y        tau_z
    1     1.000000     0.000001     1.000000     0.000000     0.000000     0.000000     0.000000     0.000000
    2    -1.000000     0.000001     1.000000     0.000000     0.000000     0.000000     0.000000     0.000000
    3     1.000000   120.000000    -0.577350    -0.577350    -0.577350     0.000000     0.000000     0.000000
    4    -1.000000   120.000000    -0.577350    -0.577350    -0.577350     0.000000     0.000000     0.000000
    5     1.000000   120.000000     0.577350     0.577350     0.577350     0.000000     0.000000     0.000000
    6    -1.000000   120.000000     0.577350     0.577350     0.577350     0.000000     0.000000     0.000000
    7     1.000000    90.000000     0.000000     0.000000    -1.000000     0.000000     0.000000     0.000000
    8    -1.000000    90.000000     0.000000     0.000000    -1.000000     0.000000     0.000000     0.000000
    9     1.000000   180.000000     0.000000     0.707107     0.707107     0.000000     0.000000     0.000000
   10    -1.000000   180.000000     0.000000     0.707107     0.707107     0.000000     0.000000     0.000000
   11     1.000000    90.000000     0.000000     1.000000     0.000000     0.000000     0.000000     0.000000
   12    -1.000000    90.000000     0.000000     1.000000     0.000000     0.000000     0.000000     0.000000
   13     1.000000   180.000000     0.000000     0.000000     1.000000     0.000000     0.000000     0.000000
   14    -1.000000   180.000000     0.000000     0.000000     1.000000     0.000000     0.000000     0.000000
   15     1.000000   120.000000    -0.577350     0.577350     0.577350     0.000000     0.000000     0.000000
   16    -1.000000   120.000000    -0.577350     0.577350     0.577350     0.000000     0.000000     0.000000
   17     1.000000   120.000000    -0.577350     0.577350    -0.577350     0.000000     0.000000     0.000000
   18    -1.000000   120.000000    -0.577350     0.577350    -0.577350     0.000000     0.000000     0.000000
   19     1.000000    90.000000     0.000000     0.000000     1.000000     0.000000     0.000000     0.000000
   20    -1.000000    90.000000     0.000000     0.000000     1.000000     0.000000     0.000000     0.000000
   21     1.000000    90.000000    -1.000000     0.000000     0.000000     0.000000     0.000000     0.000000
   22    -1.000000    90.000000    -1.000000     0.000000     0.000000     0.000000     0.000000     0.000000
   23     1.000000   180.000000     0.707107     0.000000     0.707107     0.000000     0.000000     0.000000
   24    -1.000000   180.000000     0.707107     0.000000     0.707107     0.000000     0.000000     0.000000
   25     1.000000   120.000000     0.577350    -0.577350     0.577350     0.000000     0.000000     0.000000
   26    -1.000000   120.000000     0.577350    -0.577350     0.577350     0.000000     0.000000     0.000000
   27     1.000000   120.000000    -0.577350    -0.577350     0.577350     0.000000     0.000000     0.000000
   28    -1.000000   120.000000    -0.577350    -0.577350     0.577350     0.000000     0.000000     0.000000
   29     1.000000   180.000000     1.000000     0.000000     0.000000     0.000000     0.000000     0.000000
   30    -1.000000   180.000000     1.000000     0.000000     0.000000     0.000000     0.000000     0.000000
   31     1.000000    90.000000     0.000000    -1.000000     0.000000     0.000000     0.000000     0.000000
   32    -1.000000    90.000000     0.000000    -1.000000     0.000000     0.000000     0.000000     0.000000
   33     1.000000   180.000000     0.707107     0.707107     0.000000     0.000000     0.000000     0.000000
   34    -1.000000   180.000000     0.707107     0.707107     0.000000     0.000000     0.000000     0.000000
   35     1.000000    90.000000     1.000000     0.000000     0.000000     0.000000     0.000000     0.000000
   36    -1.000000    90.000000     1.000000     0.000000     0.000000     0.000000     0.000000     0.000000
   37     1.000000   120.000000     0.577350    -0.577350    -0.577350     0.000000     0.000000     0.000000
   38    -1.000000   120.000000     0.577350    -0.577350    -0.577350     0.000000     0.000000     0.000000
   39     1.000000   180.000000     0.000000     1.000000     0.000000     0.000000     0.000000     0.000000
   40    -1.000000   180.000000     0.000000     1.000000     0.000000     0.000000     0.000000     0.000000
   41     1.000000   120.000000     0.577350     0.577350    -0.577350     0.000000     0.000000     0.000000
   42    -1.000000   120.000000     0.577350     0.577350    -0.577350     0.000000     0.000000     0.000000
   43     1.000000   180.000000     0.000000    -0.707107     0.707107     0.000000     0.000000     0.000000
   44    -1.000000   180.000000     0.000000    -0.707107     0.707107     0.000000     0.000000     0.000000
   45     1.000000   180.000000     0.707107    -0.707107     0.000000     0.000000     0.000000     0.000000
   46    -1.000000   180.000000     0.707107    -0.707107     0.000000     0.000000     0.000000     0.000000
   47     1.000000   180.000000     0.707107     0.000000    -0.707107     0.000000     0.000000     0.000000
   48    -1.000000   180.000000     0.707107     0.000000    -0.707107     0.000000     0.000000     0.000000

 SYSTEM =  fcc Au
 POSCAR =  Au bulk FCC

 Startparameter for this run:
   NWRITE =      2    write-flag & timer
   PREC   = normal    normal or accurate (medium, high low for compatibility)
   ISTART =      0    job   : 0-new  1-cont  2-samecut
   ICHARG =     11    charge: 1-file 2-atom 10-const
   ISPIN  =      1    spin polarized calculation?
   LNONCOLLINEAR =      F non collinear calculations
   LSORBIT =      F    spin-orbit coupling
   INIWAV =      1    electr: 0-lowe 1-rand  2-diag
   LASPH  =      F    aspherical Exc in radial PAW
   METAGGA=      F    non-selfconsistent MetaGGA calc.

 Electronic Relaxation 1
   ENCUT  =  229.9 eV  16.89 Ry    4.11 a.u.   3.57  3.57  3.57*2*pi/ulx,y,z
   ENINI  =  229.9     initial cutoff
   ENAUG  =  356.7 eV  augmentation charge cutoff
   NELM   =     60;   NELMIN=  2; NELMDL= -5     # of ELM steps
   EDIFF  = 0.1E-03   stopping-criterion for ELM
   LREAL  =      F    real-space projection
   NLSPLINE    = F    spline interpolate recip. space projectors
   LCOMPAT=      F    compatible to vasp.4.4
   GGA_COMPAT  = T    GGA compatible to vasp.4.4-vasp.4.6
   LMAXPAW     = -100 max onsite density
   LMAXMIX     =    2 max onsite mixed and CHGCAR
   VOSKOWN=      0    Vosko Wilk Nusair interpolation
   ROPT   =    0.00000
 Ionic relaxation
   EDIFFG = 0.1E-02   stopping-criterion for IOM
   NSW    =      0    number of steps for IOM
   NBLOCK =      1;   KBLOCK =      1    inner block; outer block
   IBRION =     -1    ionic relax: 0-MD 1-quasi-New 2-CG
   NFREE  =      0    steps in history (QN), initial steepest desc. (CG)
   ISIF   =      2    stress and relaxation
   IWAVPR =     10    prediction:  0-non 1-charg 2-wave 3-comb
   ISYM   =      2    0-nonsym 1-usesym 2-fastsym
   LCORR  =      T    Harris-Foulkes like correction to forces

   POTIM  = 0.5000    time-step for ionic-motion
   TEIN   =    0.0    initial temperature
   TEBEG  =    0.0;   TEEND  =   0.0 temperature during run
   SMASS  =  -3.00    Nose mass-parameter (am)
   estimated Nose-frequenzy (Omega)   =  0.10E-29 period in steps =****** mass=  -0.190E-27a.u.
   SCALEE = 1.0000    scale energy and forces
   NPACO  =    256;   APACO  = 16.0  distance and # of slots for P.C.
   PSTRESS=    0.0 pullay stress

  Mass of Ions in am
   POMASS = 196.97
  Ionic Valenz
   ZVAL   =  11.00
  Atomic Wigner-Seitz radii
  virtual crystal weights
   VCA    =   1.00
   NELECT =      11.0000    total number of electrons
   NUPDOWN=      -1.0000    fix difference up-down

 DOS related values:
   EMIN   =  10.00;   EMAX   =-10.00  energy-range for DOS
   EFERMI =   0.00
   ISMEAR =     1;   SIGMA  =   0.20  broadening in eV -4-tet -1-fermi 0-gaus

 Electronic relaxation 2 (details)
   IALGO  =     38    algorithm
   LDIAG  =      T    sub-space diagonalisation (order eigenvalues)
   LSUBROT=      F    optimize rotation matrix (better conditioning)
   TURBO    =      0    0=normal 1=particle mesh
   IRESTART =      0    0=no restart 2=restart with 2 vectors
   NREBOOT  =      0    no. of reboots
   NMIN     =      0    reboot dimension
   EREF     =   0.00    reference energy to select bands
   IMIX   =      4    mixing-type and parameters
     AMIX     =   0.40;   BMIX     =  1.00
     AMIX_MAG =   1.60;   BMIX_MAG =  1.00
     AMIN     =   0.10
[...]
   0.00000000  0.21052632  0.00000000       0.010
   0.00000000  0.26315789  0.00000000       0.010
   0.00000000  0.31578947  0.00000000       0.010
   0.00000000  0.36842105  0.00000000       0.010
   0.00000000  0.42105263  0.00000000       0.010
   0.00000000  0.47368421  0.00000000       0.010
   0.00000000  0.52631579  0.00000000       0.010
   0.00000000  0.57894737  0.00000000       0.010
   0.00000000  0.63157895  0.00000000       0.010
   0.00000000  0.68421053  0.00000000       0.010
   0.00000000  0.73684211  0.00000000       0.010
   0.00000000  0.78947368  0.00000000       0.010
   0.00000000  0.84210526  0.00000000       0.010
   0.00000000  0.89473684  0.00000000       0.010
   0.00000000  0.94736842  0.00000000       0.010
   0.00000000  1.00000000  0.00000000       0.010
[...]
   0.36842105  1.00000000  0.00000000       0.010
   0.34210526  1.00000000  0.00000000       0.010
   0.31578947  1.00000000  0.00000000       0.010
   0.28947368  1.00000000  0.00000000       0.010
   0.26315789  1.00000000  0.00000000       0.010
   0.23684211  1.00000000  0.00000000       0.010
   0.21052632  1.00000000  0.00000000       0.010
   0.18421053  1.00000000  0.00000000       0.010
   0.15789474  1.00000000  0.00000000       0.010
   0.13157895  1.00000000  0.00000000       0.010
   0.10526316  1.00000000  0.00000000       0.010
   0.07894737  1.00000000  0.00000000       0.010
   0.05263158  1.00000000 -0.00000000       0.010
   0.02631579  1.00000000  0.00000000       0.010
   0.00000000  1.00000000  0.00000000       0.010

 k-points in reciprocal lattice and weights: K-points along high symmetry lines for F
   0.50000000  0.25000000  0.75000000       0.010
   0.50000000  0.26315789  0.73684211       0.010
   0.50000000  0.27631579  0.72368421       0.010
   0.50000000  0.28947368  0.71052632       0.010
   0.50000000  0.30263158  0.69736842       0.010
   0.50000000  0.31578947  0.68421053       0.010
   0.50000000  0.32894737  0.67105263       0.010
   0.50000000  0.34210526  0.65789474       0.010
   0.50000000  0.35526316  0.64473684       0.010
   0.50000000  0.36842105  0.63157895       0.010
   0.50000000  0.38157895  0.61842105       0.010
   0.50000000  0.39473684  0.60526316       0.010
   0.50000000  0.40789474  0.59210526       0.010
   0.50000000  0.42105263  0.57894737       0.010
   0.50000000  0.43421053  0.56578947       0.010
   0.50000000  0.44736842  0.55263158       0.010
   0.50000000  0.46052632  0.53947368       0.010
   0.50000000  0.47368421  0.52631579       0.010
   0.50000000  0.48684211  0.51315789       0.010
   0.50000000  0.50000000  0.50000000       0.010
   0.50000000  0.50000000  0.50000000       0.010
   0.47368421  0.47368421  0.47368421       0.010
   0.44736842  0.44736842  0.44736842       0.010
   0.42105263  0.42105263  0.42105263       0.010
   0.39473684  0.39473684  0.39473684       0.010
   0.36842105  0.36842105  0.36842105       0.010
   0.34210526  0.34210526  0.34210526       0.010
   0.31578947  0.31578947  0.31578947       0.010
   0.28947368  0.28947368  0.28947368       0.010
   0.26315789  0.26315789  0.26315789       0.010
   0.23684211  0.23684211  0.23684211       0.010
   0.21052632  0.21052632  0.21052632       0.010
   0.18421053  0.18421053  0.18421053       0.010
   0.15789474  0.15789474  0.15789474       0.010
   0.13157895  0.13157895  0.13157895       0.010
   0.10526316  0.10526316  0.10526316       0.010
   0.07894737  0.07894737  0.07894737       0.010
   0.05263158  0.05263158  0.05263158       0.010
   0.02631579  0.02631579  0.02631579       0.010
   0.00000000  0.00000000  0.00000000       0.010
   0.00000000  0.00000000  0.00000000       0.010
   0.02631579  0.00000000  0.02631579       0.010
   0.05263158  0.00000000  0.05263158       0.010
   0.07894737  0.00000000  0.07894737       0.010
   0.10526316  0.00000000  0.10526316       0.010
   0.13157895  0.00000000  0.13157895       0.010
   0.15789474  0.00000000  0.15789474       0.010
   0.18421053  0.00000000  0.18421053       0.010
   0.21052632  0.00000000  0.21052632       0.010
   0.23684211  0.00000000  0.23684211       0.010
   0.26315789  0.00000000  0.26315789       0.010
   0.28947368  0.00000000  0.28947368       0.010
   0.31578947  0.00000000  0.31578947       0.010
   0.34210526  0.00000000  0.34210526       0.010
   0.36842105  0.00000000  0.36842105       0.010
   0.39473684  0.00000000  0.39473684       0.010
   0.42105263  0.00000000  0.42105263       0.010
   0.44736842  0.00000000  0.44736842       0.010
   0.47368421  0.00000000  0.47368421       0.010
   0.50000000  0.00000000  0.50000000       0.010
[...]
   0.50000000  0.18421053  0.68421053       0.010
   0.50000000  0.17105263  0.67105263       0.010
   0.50000000  0.15789474  0.65789474       0.010
   0.50000000  0.14473684  0.64473684       0.010
   0.50000000  0.13157895  0.63157895       0.010
   0.50000000  0.11842105  0.61842105       0.010
   0.50000000  0.10526316  0.60526316       0.010
   0.50000000  0.09210526  0.59210526       0.010
   0.50000000  0.07894737  0.57894737       0.010
   0.50000000  0.06578947  0.56578947       0.010
   0.50000000  0.05263158  0.55263158       0.010
   0.50000000  0.03947368  0.53947368       0.010
   0.50000000  0.02631579  0.52631579       0.010
   0.50000000  0.01315789  0.51315789       0.010
   0.50000000  0.00000000  0.50000000       0.010

 position of ions in fractional coordinates (direct lattice)
   0.00000000  0.00000000  0.00000000

 position of ions in cartesian coordinates  (Angst):
   0.00000000  0.00000000  0.00000000

 k-point  1 :   0.5000 0.2500 0.7500  plane waves:     144
 k-point  2 :   0.5000 0.2632 0.7368  plane waves:     138
 k-point  3 :   0.5000 0.2763 0.7237  plane waves:     136
 k-point  4 :   0.5000 0.2895 0.7105  plane waves:     136
 k-point  5 :   0.5000 0.3026 0.6974  plane waves:     130
 k-point  6 :   0.5000 0.3158 0.6842  plane waves:     130
 k-point  7 :   0.5000 0.3289 0.6711  plane waves:     132
 k-point  8 :   0.5000 0.3421 0.6579  plane waves:     132
 k-point  9 :   0.5000 0.3553 0.6447  plane waves:     132
 k-point 10 :   0.5000 0.3684 0.6316  plane waves:     132
 k-point 11 :   0.5000 0.3816 0.6184  plane waves:     132
 k-point 12 :   0.5000 0.3947 0.6053  plane waves:     134
 k-point 13 :   0.5000 0.4079 0.5921  plane waves:     134
 k-point 14 :   0.5000 0.4211 0.5789  plane waves:     132
 k-point 15 :   0.5000 0.4342 0.5658  plane waves:     132
 k-point 16 :   0.5000 0.4474 0.5526  plane waves:     132
 k-point 17 :   0.5000 0.4605 0.5395  plane waves:     134
 k-point 18 :   0.5000 0.4737 0.5263  plane waves:     138
 k-point 19 :   0.5000 0.4868 0.5132  plane waves:     138
 k-point 20 :   0.5000 0.5000 0.5000  plane waves:     138
 k-point 21 :   0.5000 0.5000 0.5000  plane waves:     138
 k-point 22 :   0.4737 0.4737 0.4737  plane waves:     138
 k-point 23 :   0.4474 0.4474 0.4474  plane waves:     135
 k-point 24 :   0.4211 0.4211 0.4211  plane waves:     138
 k-point 25 :   0.3947 0.3947 0.3947  plane waves:     144
 k-point 26 :   0.3684 0.3684 0.3684  plane waves:     144
 k-point 27 :   0.3421 0.3421 0.3421  plane waves:     144
 k-point 28 :   0.3158 0.3158 0.3158  plane waves:     144
 k-point 29 :   0.2895 0.2895 0.2895  plane waves:     138
 k-point 30 :   0.2632 0.2632 0.2632  plane waves:     138
 k-point 31 :   0.2368 0.2368 0.2368  plane waves:     138
 k-point 32 :   0.2105 0.2105 0.2105  plane waves:     138
 k-point 33 :   0.1842 0.1842 0.1842  plane waves:     138
 k-point 34 :   0.1579 0.1579 0.1579  plane waves:     138
 k-point 35 :   0.1316 0.1316 0.1316  plane waves:     138
 k-point 36 :   0.1053 0.1053 0.1053  plane waves:     135
 k-point 37 :   0.0789 0.0789 0.0789  plane waves:     137
 k-point 38 :   0.0526 0.0526 0.0526  plane waves:     137
 k-point 39 :   0.0263 0.0263 0.0263  plane waves:     137
 k-point 40 :   0.0000 0.0000 0.0000  plane waves:     137
 k-point 41 :   0.0000 0.0000 0.0000  plane waves:     137
 k-point 42 :   0.0263 0.0000 0.0263  plane waves:     137
 k-point 43 :   0.0526 0.0000 0.0526  plane waves:     137
 k-point 44 :   0.0789 0.0000 0.0789  plane waves:     137
 k-point 45 :   0.1053 0.0000 0.1053  plane waves:     137
 k-point 46 :   0.1316 0.0000 0.1316  plane waves:     137
 k-point 47 :   0.1579 0.0000 0.1579  plane waves:     141
 k-point 48 :   0.1842 0.0000 0.1842  plane waves:     133
 k-point 49 :   0.2105 0.0000 0.2105  plane waves:     133
 k-point 50 :   0.2368 0.0000 0.2368  plane waves:     133
 k-point 51 :   0.2632 0.0000 0.2632  plane waves:     133
 k-point 52 :   0.2895 0.0000 0.2895  plane waves:     133
 k-point 53 :   0.3158 0.0000 0.3158  plane waves:     129
 k-point 54 :   0.3421 0.0000 0.3421  plane waves:     129
 k-point 55 :   0.3684 0.0000 0.3684  plane waves:     129
 k-point 56 :   0.3947 0.0000 0.3947  plane waves:     129
 k-point 57 :   0.4211 0.0000 0.4211  plane waves:     129
 k-point 58 :   0.4474 0.0000 0.4474  plane waves:     129
 k-point 59 :   0.4737 0.0000 0.4737  plane waves:     125
 k-point 60 :   0.5000 0.0000 0.5000  plane waves:     126
[...]
 k-point 85 :   0.5000 0.1974 0.6974  plane waves:     136
 k-point 86 :   0.5000 0.1842 0.6842  plane waves:     136
 k-point 87 :   0.5000 0.1711 0.6711  plane waves:     136
 k-point 88 :   0.5000 0.1579 0.6579  plane waves:     130
 k-point 89 :   0.5000 0.1447 0.6447  plane waves:     130
 k-point 90 :   0.5000 0.1316 0.6316  plane waves:     130
 k-point 91 :   0.5000 0.1184 0.6184  plane waves:     130
 k-point 92 :   0.5000 0.1053 0.6053  plane waves:     130
 k-point 93 :   0.5000 0.0921 0.5921  plane waves:     130
 k-point 94 :   0.5000 0.0789 0.5789  plane waves:     130
 k-point 95 :   0.5000 0.0658 0.5658  plane waves:     130
 k-point 96 :   0.5000 0.0526 0.5526  plane waves:     130
 k-point 97 :   0.5000 0.0395 0.5395  plane waves:     126
 k-point 98 :   0.5000 0.0263 0.5263  plane waves:     126
 k-point 99 :   0.5000 0.0132 0.5132  plane waves:     126
 k-point ** :   0.5000 0.0000 0.5000  plane waves:     126

 maximum and minimum number of plane-waves per node :       144      125

 maximum number of plane-waves:       144
 maximum index in each direction:
   IXMAX=    3   IYMAX=    3   IZMAX=    3
   IXMIN=   -4   IYMIN=   -4   IZMIN=   -4

 serial   3D FFT for wavefunctions
 parallel 3D FFT for charge:
    minimum data exchange during FFTs selected (reduces bandwidth)

 initial charge density was supplied:
 number of electron      11.0000055 magnetization
 keeping initial charge density in first step

 Maximum index for augmentation-charges         6051 (set IRDMAX)

 First call to EWALD:  gamma=   0.690
 Maximum number of real-space cells 3x 3x 3
 Maximum number of reciprocal cells 3x 3x 3

--------------------------------------- Iteration      1(   1)  ---------------------------------------

 eigenvalue-minimisations  :  2403
 total energy-change (2. order) : 0.2490043E+02  (-0.3790229E+03)
 number of electron      11.0000055 magnetization
 augmentation part       11.0000055 magnetization

 Free energy of the ion-electron system (eV)
  alpha Z        PSCENC =       108.24217189
  Ewald energy   TEWEN  =      -978.98843183
  -Hartree energ DENC   =      -111.24555766
  -exchange      EXHF   =         0.00000000
  -V(xc)+E(xc)   XCENC  =        15.74155775
  PAW double counting   =       752.42945069     -734.56866697
  entropy T*S    EENTRO =        -0.00073479
  eigenvalues    EBANDS =        43.89448633
  atomic energy  EATOM  =       929.39614979
  Solvation  Ediel_sol  =         0.00000000
  free energy    TOTEN  =        24.90042520 eV

  energy without entropy =       24.90115999  energy(sigma->0) =       24.90067013

[...]

 eigenvalue-minimisations  :  1831
 total energy-change (2. order) :-0.2817191E+02  (-0.2578700E+02)
 number of electron      11.0000055 magnetization
 augmentation part       11.0000055 magnetization

[...]

--------------------------------------- Iteration      1(   6)  ---------------------------------------

 eigenvalue-minimisations  :  1209
 total energy-change (2. order) :-0.1130051E-06  (-0.1133431E-06)
 number of electron      11.0000055 magnetization
 augmentation part       11.0000055 magnetization

 Free energy of the ion-electron system (eV)
  alpha Z        PSCENC =       108.24217189
  Ewald energy   TEWEN  =      -978.98843183
  -Hartree energ DENC   =      -111.24555766
  -exchange      EXHF   =         0.00000000
  -V(xc)+E(xc)   XCENC  =        15.74155775
  PAW double counting   =       752.42945069     -734.56866697
  entropy T*S    EENTRO =        -0.00225781
  eigenvalues    EBANDS =        15.49358758
  atomic energy  EATOM  =       929.39614979
  Solvation  Ediel_sol  =         0.00000000
  free energy    TOTEN  =        -3.50199657 eV

  energy without entropy =       -3.49973876  energy(sigma->0) =       -3.50124397

 average (electrostatic) potential at core
  the test charge radii are     1.2098
  (the norm of the test charge is              1.0000)
       1 -45.7806

 E-fermi :   6.6533     XC(G=0): -13.0052     alpha+bet :-10.3291

 k-point     1 :       0.5000    0.2500    0.7500
  band No.  band energies     occupation
      1      -0.4191      2.00000
      2       0.4004      2.00000
      3       0.4004      2.00000
      4       2.2592      2.00000
      5       3.9700      2.00000
      6      10.3297     -0.00000
      7      11.9025     -0.00000
      8      11.9025     -0.00000
      9      15.0726      0.00000

[...]

 k-point   100 :       0.5000    0.0000    0.5000
  band No.  band energies     occupation
      1      -1.5363      2.00000
      2      -1.2096      2.00000
      3       3.5973      2.00000
      4       3.9757      2.00000
      5       3.9757      2.00000
      6       6.5599      1.70294
      7      11.3675     -0.00000
      8      15.7395      0.00000
      9      15.7395      0.00000

 soft charge-density along one line, spin component           1
         0         1         2         3         4         5         6         7         8         9
 total charge-density along one line

------------------------ aborting loop because EDIFF is reached ----------------------------------------

 total charge

# of ion       s       p       d       tot
    1        0.453   0.385   8.856   9.694

  FORCE on cell =-STRESS in cart. coord.  units (eV):
  Direction    XX          YY          ZZ          XY          YZ          ZX
  Alpha Z   108.24217   108.24217   108.24217
  Ewald    -326.32949  -326.32949  -326.32949     0.00000     0.00000     0.00000
  Hartree    38.56072    38.56072    38.56072    -0.00000    -0.00000    -0.00000
  E(xc)     -48.95720   -48.95720   -48.95720     0.00001     0.00001     0.00001
  Local      84.38133    84.38133    84.38133     0.00015     0.00015     0.00015
  n-local   -47.98325   -54.99756   -53.29577    -0.66145    -0.71256    -0.66128
  augment    43.65086    43.65086    43.65086    -0.00002    -0.00002    -0.00002
  Kinetic   152.41608   158.55292   155.17271     0.87810     1.31339     0.87810
  Fock        0.00000     0.00000     0.00000     0.00000     0.00000     0.00000
  Total       2.83678     2.83678     2.83678     0.00000    -0.00000     0.00000
  in kB     267.68033   267.68033   267.68033     0.00000    -0.00000     0.00000

 VOLUME and BASIS-vectors are now :
  energy-cutoff  :      229.87
  volume of cell :       16.98
      direct lattice vectors                 reciprocal lattice vectors
     0.000000000  2.040000000  2.040000000    -0.245098039  0.245098039  0.245098039
     2.040000000  0.000000000  2.040000000     0.245098039 -0.245098039  0.245098039
     2.040000000  2.040000000  0.000000000     0.245098039  0.245098039 -0.245098039

  length of vectors
     2.884995667  2.884995667  2.884995667     0.424522257  0.424522257  0.424522257

 FORCES acting on ions
    electron-ion (+dipol)            ewald-force                    non-local-force                 convergence-correction
   -.296E-15 0.184E-14 -.209E-14   -.208E-15 0.128E-14 0.450E-14   -.318E-21 0.106E-21 0.000E+00   0.158E-14 -.558E-14 0.228E-14
   -.296E-15 0.184E-14 -.209E-14   -.208E-15 0.128E-14 0.450E-14   -.318E-21 0.106E-21 0.000E+00   0.158E-14 -.558E-14 0.228E-14

 POSITION                                       TOTAL-FORCE (eV/Angst)
      0.00000      0.00000      0.00000         0.000000     -0.000000      0.000000
    total drift:                                0.000000     -0.000000      0.000000

  FREE ENERGIE OF THE ION-ELECTRON SYSTEM (eV)
  free  energy   TOTEN  =        -3.50199657 eV

  energy  without entropy=       -3.49973876  energy(sigma->0) =       -3.50124397

 total charge

# of ion       s       p       d       tot
    1        0.453   0.385   8.856   9.694