 vasp.5.4.4.18Apr17-6-g9f103f2a35 (build May 20 2018 16:52:39) complex

 executed on             LinuxIFC date 2022.11.17  21:34:40

 INCAR:
 POTCAR:    PAW Nb_pv 09Jan2002

 POTCAR:    PAW Nb_pv 09Jan2002
   VRHFIN =Nb: s1d4

   TITEL  = PAW Nb_pv 09Jan2002
   POMASS =   92.910; ZVAL   =   11.000    mass and valenz
   ENMAX  =  207.263; ENMIN  =  155.447 eV

  PAW Nb_pv 09Jan2002                   :

 POSCAR: sic16 Nb
  positions in direct lattice
 exchange correlation table for  LEXCH =        2
   RHO(1)=    0.500       N(1)  =     2000
   RHO(2)=  100.500       N(2)  =     4000

 ion  position               nearest neighbor table
   1  0.000  0.000  0.000-   2 2.86   4 2.86   6 2.86   8 2.86  10 2.86  12 2.86  14 2.86  16 2.86
                             7 3.30   5 3.30   3 3.30   7 3.30   5 3.30   3 3.30
   2  0.250  0.250  0.250-   1 2.86   3 2.86   5 2.86   7 2.86   9 2.86  11 2.86  13 2.86  15 2.86
                             4 3.30   8 3.30   6 3.30   8 3.30   6 3.30   4 3.30
   3  0.500  0.000  0.000-   2 2.86   4 2.86   6 2.86   8 2.86  10 2.86  12 2.86  14 2.86  16 2.86
                            13 3.30   1 3.30   9 3.30  13 3.30   9 3.30   1 3.30
   4  0.750  0.250  0.250-   1 2.86   3 2.86   5 2.86   7 2.86   9 2.86  11 2.86  13 2.86  15 2.86
                            10 3.30  14 3.30   2 3.30  14 3.30  10 3.30   2 3.30
   5  0.000  0.500  0.000-   2 2.86   4 2.86   6 2.86   8 2.86  10 2.86  12 2.86  14 2.86  16 2.86
                             9 3.30   1 3.30  11 3.30  11 3.30   1 3.30   9 3.30
   6  0.250  0.750  0.250-   1 2.86   3 2.86   5 2.86   7 2.86   9 2.86  11 2.86  13 2.86  15 2.86
                            12 3.30  10 3.30   2 3.30  12 3.30   2 3.30  10 3.30
   7  0.000  0.000  0.500-   2 2.86   4 2.86   6 2.86   8 2.86  10 2.86  12 2.86  14 2.86  16 2.86
                            13 3.30  11 3.30   1 3.30   1 3.30  11 3.30  13 3.30
   8  0.250  0.250  0.750-   1 2.86   3 2.86   5 2.86   7 2.86   9 2.86  11 2.86  13 2.86  15 2.86
                             2 3.30  14 3.30  12 3.30   2 3.30  12 3.30  14 3.30
   9  0.500  0.500  0.000-   2 2.86   4 2.86   6 2.86   8 2.86  10 2.86  12 2.86  14 2.86  16 2.86
                             3 3.30  15 3.30   5 3.30  15 3.30   3 3.30   5 3.30
  10  0.750  0.750  0.250-   1 2.86   3 2.86   5 2.86   7 2.86   9 2.86  11 2.86  13 2.86  15 2.86
                             6 3.30   4 3.30  16 3.30  16 3.30   4 3.30   6 3.30
  11  0.000  0.500  0.500-   2 2.86   4 2.86   6 2.86   8 2.86  10 2.86  12 2.86  14 2.86  16 2.86
                             7 3.30  15 3.30   5 3.30   5 3.30   7 3.30  15 3.30
  12  0.250  0.750  0.750-   1 2.86   3 2.86   5 2.86   7 2.86   9 2.86  11 2.86  13 2.86  15 2.86
                             6 3.30   8 3.30  16 3.30   6 3.30   8 3.30  16 3.30
  13  0.500  0.000  0.500-   2 2.86   4 2.86   6 2.86   8 2.86  10 2.86  12 2.86  14 2.86  16 2.86
                             7 3.30  15 3.30   3 3.30   3 3.30  15 3.30   7 3.30
  14  0.750  0.250  0.750-   1 2.86   3 2.86   5 2.86   7 2.86   9 2.86  11 2.86  13 2.86  15 2.86
                             4 3.30   8 3.30  16 3.30   4 3.30  16 3.30   8 3.30
  15  0.500  0.500  0.500-   2 2.86   4 2.86   6 2.86   8 2.86  10 2.86  12 2.86  14 2.86  16 2.86
                            13 3.30  11 3.30   9 3.30   9 3.30  13 3.30  11 3.30
  16  0.750  0.750  0.750-   1 2.86   3 2.86   5 2.86   7 2.86   9 2.86  11 2.86  13 2.86  15 2.86
                            10 3.30  14 3.30  12 3.30  10 3.30  14 3.30  12 3.30

  LATTYP: Found a simple cubic cell.
 ALAT       =     6.6016000000

  Lattice vectors:

 A1 = (   6.6016000000,   0.0000000000,   0.0000000000)
 A2 = (   0.0000000000,   6.6016000000,   0.0000000000)
 A3 = (   0.0000000000,   0.0000000000,   6.6016000000)

Analysis of symmetry for initial positions (statically):
 Subroutine PRICEL returns following result:

  LATTYP: Found a body centered cubic cell.
 ALAT       =     3.3008000000

[...]

  16 primitive cells build up your supercell.

 Routine SETGRP: Setting up the symmetry group for a
 simple cubic supercell.

 Subroutine GETGRP returns: Found 48 space group operations
 (whereof 48 operations were pure point group operations)
 out of a pool of 48 trial point group operations.

The static configuration has the point symmetry O_h .

Analysis of symmetry for dynamics (positions and initial velocities):
 Subroutine PRICEL returns following result:

  LATTYP: Found a body centered cubic cell.
 ALAT       =     3.3008000000

  Lattice vectors:

 A1 = (   1.6504000000,   1.6504000000,   1.6504000000)
 A2 = (   1.6504000000,  -1.6504000000,  -1.6504000000)
 A3 = (  -1.6504000000,   1.6504000000,  -1.6504000000)

  16 primitive cells build up your supercell.

 Routine SETGRP: Setting up the symmetry group for a
 simple cubic supercell.

 Subroutine GETGRP returns: Found 48 space group operations
 (whereof 48 operations were pure point group operations)
 out of a pool of 48 trial point group operations.

The dynamic configuration has the point symmetry O_h .

 Subroutine INISYM returns: Found 48 space group operations
 (whereof 48 operations are pure point group operations),
 and found    16 'primitive' translations

 KPOINTS: 20*20*20

Automatic generation of k-mesh.
Space group operators:
 irot       det(A)        alpha          n_x          n_y          n_z        tau_x        tau_y        tau_z
    1     1.000000     0.000000     1.000000     0.000000     0.000000     0.000000     0.000000     0.000000
    2    -1.000000     0.000000     1.000000     0.000000     0.000000     0.000000     0.000000     0.000000
    3     1.000000   120.000000    -0.577350    -0.577350    -0.577350     0.000000     0.000000     0.000000
    4    -1.000000   120.000000    -0.577350    -0.577350    -0.577350     0.000000     0.000000     0.000000
    5     1.000000   120.000000     0.577350     0.577350     0.577350     0.000000     0.000000     0.000000
    6    -1.000000   120.000000     0.577350     0.577350     0.577350     0.000000     0.000000     0.000000
    7     1.000000    90.000000     0.000000     0.000000    -1.000000     0.000000     0.000000     0.000000
    8    -1.000000    90.000000     0.000000     0.000000    -1.000000     0.000000     0.000000     0.000000
    9     1.000000   180.000000     0.000000     0.707107     0.707107     0.000000     0.000000     0.000000
   10    -1.000000   180.000000     0.000000     0.707107     0.707107     0.000000     0.000000     0.000000
   11     1.000000    90.000000     0.000000     1.000000     0.000000     0.000000     0.000000     0.000000
   12    -1.000000    90.000000     0.000000     1.000000     0.000000     0.000000     0.000000     0.000000
   13     1.000000   180.000000     0.000000     0.000000     1.000000     0.000000     0.000000     0.000000
   14    -1.000000   180.000000     0.000000     0.000000     1.000000     0.000000     0.000000     0.000000
   15     1.000000   120.000000    -0.577350     0.577350     0.577350     0.000000     0.000000     0.000000
   16    -1.000000   120.000000    -0.577350     0.577350     0.577350     0.000000     0.000000     0.000000
   17     1.000000   120.000000    -0.577350     0.577350    -0.577350     0.000000     0.000000     0.000000
   18    -1.000000   120.000000    -0.577350     0.577350    -0.577350     0.000000     0.000000     0.000000
   19     1.000000    90.000000     0.000000     0.000000     1.000000     0.000000     0.000000     0.000000
   20    -1.000000    90.000000     0.000000     0.000000     1.000000     0.000000     0.000000     0.000000
   21     1.000000    90.000000    -1.000000     0.000000     0.000000     0.000000     0.000000     0.000000
   22    -1.000000    90.000000    -1.000000     0.000000     0.000000     0.000000     0.000000     0.000000
   23     1.000000   180.000000     0.707107     0.000000     0.707107     0.000000     0.000000     0.000000
   24    -1.000000   180.000000     0.707107     0.000000     0.707107     0.000000     0.000000     0.000000
   25     1.000000   120.000000     0.577350    -0.577350     0.577350     0.000000     0.000000     0.000000
   26    -1.000000   120.000000     0.577350    -0.577350     0.577350     0.000000     0.000000     0.000000
   27     1.000000   120.000000    -0.577350    -0.577350     0.577350     0.000000     0.000000     0.000000
   28    -1.000000   120.000000    -0.577350    -0.577350     0.577350     0.000000     0.000000     0.000000
   29     1.000000   180.000000     1.000000     0.000000     0.000000     0.000000     0.000000     0.000000
   30    -1.000000   180.000000     1.000000     0.000000     0.000000     0.000000     0.000000     0.000000
   31     1.000000    90.000000     0.000000    -1.000000     0.000000     0.000000     0.000000     0.000000
   32    -1.000000    90.000000     0.000000    -1.000000     0.000000     0.000000     0.000000     0.000000
   33     1.000000   180.000000     0.707107     0.707107     0.000000     0.000000     0.000000     0.000000
   34    -1.000000   180.000000     0.707107     0.707107     0.000000     0.000000     0.000000     0.000000
   35     1.000000    90.000000     1.000000     0.000000     0.000000     0.000000     0.000000     0.000000
   36    -1.000000    90.000000     1.000000     0.000000     0.000000     0.000000     0.000000     0.000000
   37     1.000000   120.000000     0.577350    -0.577350    -0.577350     0.000000     0.000000     0.000000
   38    -1.000000   120.000000     0.577350    -0.577350    -0.577350     0.000000     0.000000     0.000000
   39     1.000000   180.000000     0.000000     1.000000     0.000000     0.000000     0.000000     0.000000
   40    -1.000000   180.000000     0.000000     1.000000     0.000000     0.000000     0.000000     0.000000
   41     1.000000   120.000000     0.577350     0.577350    -0.577350     0.000000     0.000000     0.000000
   42    -1.000000   120.000000     0.577350     0.577350    -0.577350     0.000000     0.000000     0.000000
   43     1.000000   180.000000     0.000000    -0.707107     0.707107     0.000000     0.000000     0.000000
   44    -1.000000   180.000000     0.000000    -0.707107     0.707107     0.000000     0.000000     0.000000
   45     1.000000   180.000000     0.707107    -0.707107     0.000000     0.000000     0.000000     0.000000
   46    -1.000000   180.000000     0.707107    -0.707107     0.000000     0.000000     0.000000     0.000000
   47     1.000000   180.000000     0.707107     0.000000    -0.707107     0.000000     0.000000     0.000000
   48    -1.000000   180.000000     0.707107     0.000000    -0.707107     0.000000     0.000000     0.000000

 Subroutine IBZKPT returns following result:

 Found    220 irreducible k-points:

 Following reciprocal coordinates:
            Coordinates               Weight
  0.025000  0.025000  0.025000      8.000000
  0.075000  0.025000  0.025000     24.000000
  0.125000  0.025000  0.025000     24.000000
  0.175000  0.025000  0.025000     24.000000
  0.225000  0.025000  0.025000     24.000000
  0.275000  0.025000  0.025000     24.000000
  0.325000  0.025000  0.025000     24.000000
[...]
 k-point ** :   0.3750 0.3750 0.1750  plane waves:    3388
[...]
 k-point ** :   0.4250 0.3750 0.3250  plane waves:    3382
 k-point ** :   0.4750 0.3750 0.3250  plane waves:    3389
 k-point ** :   0.4250 0.4250 0.3250  plane waves:    3384
 k-point ** :   0.4750 0.4250 0.3250  plane waves:    3388
 k-point ** :   0.4750 0.4750 0.3250  plane waves:    3391
 k-point ** :   0.3750 0.3750 0.3750  plane waves:    3389
 k-point ** :   0.4250 0.3750 0.3750  plane waves:    3385
 k-point ** :   0.4750 0.3750 0.3750  plane waves:    3388
 k-point ** :   0.4250 0.4250 0.3750  plane waves:    3387
 k-point ** :   0.4750 0.4250 0.3750  plane waves:    3389
 k-point ** :   0.4750 0.4750 0.3750  plane waves:    3395
 k-point ** :   0.4250 0.4250 0.4250  plane waves:    3394
 k-point ** :   0.4750 0.4250 0.4250  plane waves:    3400
 k-point ** :   0.4750 0.4750 0.4250  plane waves:    3394
 k-point ** :   0.4750 0.4750 0.4750  plane waves:    3406

 maximum and minimum number of plane-waves per node :      3415     3375

 maximum number of plane-waves:      3415
 maximum index in each direction:
   IXMAX=    9   IYMAX=    9   IZMAX=    9
   IXMIN=   -9   IYMIN=   -9   IZMIN=   -9

 serial   3D FFT for wavefunctions
 parallel 3D FFT for charge:
    minimum data exchange during FFTs selected (reduces bandwidth)

 Broyden mixing: mesh for mixing (old mesh)
   NGX = 19   NGY = 19   NGZ = 19
  (NGX  = 56   NGY  = 56   NGZ  = 56)
  gives a total of   6859 points

 initial charge density was supplied:
 charge density of overlapping atoms calculated
 number of electron     176.0000000 magnetization
 keeping initial charge density in first step

 Maximum index for augmentation-charges          341 (set IRDMAX)

 First call to EWALD:  gamma=   0.268
 Maximum number of real-space cells 3x 3x 3
 Maximum number of reciprocal cells 3x 3x 3

--------------------------------------- Iteration      1(   1)  ---------------------------------------

 BZINTS: Fermi energy: 16.139617;176.000000 electrons
         Band energy:-524.715452;  BLOECHL correction: -0.047483

 eigenvalue-minimisations  : 58960
 total energy-change (2. order) : 0.1296381E+04  (-0.6971846E+04)
 number of electron     176.0000000 magnetization
 augmentation part      176.0000000 magnetization

 Free energy of the ion-electron system (eV)
  alpha Z        PSCENC =      1996.84190797
  Ewald energy   TEWEN  =    -15368.17067784
  -Hartree energ DENC   =     -2175.50696913
  -exchange      EXHF   =         0.00000000
  -V(xc)+E(xc)   XCENC  =       436.73544328
  PAW double counting   =     13337.45265006   -13148.06601292
  entropy T*S    EENTRO =         0.00000000
  eigenvalues    EBANDS =      -524.71545182
  atomic energy  EATOM  =     16741.81022793
  Solvation  Ediel_sol  =         0.00000000
  free energy    TOTEN  =      1296.38111753 eV

  energy without entropy =     1296.38111753  energy(sigma->0) =     1296.38111753

[...]

 eigenvalue-minimisations  : 53240
 total energy-change (2. order) :-0.1413758E+04  (-0.1387990E+04)
 number of electron     176.0000000 magnetization
 augmentation part      176.0000000 magnetization

[...]

 Broyden mixing:
  rms(total) = 0.72801E+01    rms(broyden)= 0.72799E+01
  rms(prec ) = 0.75706E+01
  weight for this iteration     100.00

[...]

 eigenvalues of (default mixing * dielectric matrix)
  average eigenvalue GAMMA=   1.8121
  1.8121

[...]

 eigenvalue-minimisations  : 52120
 total energy-change (2. order) : 0.1258632E-06  (-0.6034154E-08)
 number of electron     176.0000833 magnetization
 augmentation part       64.4800192 magnetization

 Broyden mixing:
  rms(total) = 0.66471E-04    rms(broyden)= 0.66466E-04
  rms(prec ) = 0.69520E-04
  weight for this iteration     100.00

 eigenvalues of (default mixing * dielectric matrix)
  average eigenvalue GAMMA=   1.7404
  2.6883  2.5520  2.5520  1.5862  1.5862  0.9589  0.9999  0.9999

[...]

--------------------------------------- Iteration      1(  14)  ---------------------------------------

 BZINTS: Fermi energy:  4.840610;176.000000 electrons
         Band energy:***********;  BLOECHL correction: -0.048033

 eigenvalue-minimisations  : 51560
 total energy-change (2. order) :-0.2105662E-07  (-0.1002415E-08)
 number of electron     176.0000833 magnetization
 augmentation part       64.4800192 magnetization

 Free energy of the ion-electron system (eV)
  alpha Z        PSCENC =      1996.84190797
  Ewald energy   TEWEN  =    -15368.17067784
  -Hartree energ DENC   =     -1921.96069701
  -exchange      EXHF   =         0.00000000
  -V(xc)+E(xc)   XCENC  =       422.98920055
  PAW double counting   =     23984.93461628   -23851.88254168
  entropy T*S    EENTRO =         0.00000000
  eigenvalues    EBANDS =     -2182.73634543
  atomic energy  EATOM  =     16741.81022793
  Solvation  Ediel_sol  =         0.00000000
  free energy    TOTEN  =      -178.17430922 eV

  energy without entropy =     -178.17430922  energy(sigma->0) =     -178.17430922

 average (electrostatic) potential at core
  the test charge radii are     1.2165
  (the norm of the test charge is              1.0000)
       1 -34.9059       2 -34.9059       3 -34.9059       4 -34.9059       5 -34.9059
       6 -34.9059       7 -34.9059       8 -34.9059       9 -34.9059      10 -34.9059
      11 -34.9059      12 -34.9059      13 -34.9059      14 -34.9059      15 -34.9059
      16 -34.9059

 E-fermi :   4.8406     XC(G=0): -12.6479     alpha+bet :-12.9149

 k-point     1 :       0.0250    0.0250    0.0250
  band No.  band energies     occupation
      1     -26.0732      2.00000
      2     -26.0732      2.00000
      3     -26.0732      2.00000
      4     -26.0718      2.00000
      5     -26.0718      2.00000
      6     -26.0718      2.00000
      7     -25.6381      2.00000
      8     -25.6381      2.00000
      9     -25.6351      2.00000
     10     -25.4657      2.00000
     11     -25.4657      2.00000
     12     -25.4657      2.00000
     13     -25.4476      2.00000
     14     -25.4297      2.00000
     15     -25.4297      2.00000
     16     -25.4297      2.00000
     17     -25.4210      2.00000
     18     -25.4210      2.00000
     19     -25.3671      2.00000
     20     -25.3671      2.00000
     21     -25.3402      2.00000
     22     -25.1754      2.00000
     23     -25.1754      2.00000
     24     -25.1754      2.00000
     25     -25.1702      2.00000
     26     -25.1702      2.00000
     27     -25.1702      2.00000
     28     -25.1382      2.00000
     29     -25.1382      2.00000
     30     -25.1382      2.00000
     31     -25.1331      2.00000
     32     -25.1331      2.00000
     33     -25.1331      2.00000
     34     -25.1291      2.00000
     35     -25.1291      2.00000
     36     -25.1291      2.00000
     37     -25.1277      2.00000
     38     -25.1277      2.00000
     39     -25.1277      2.00000
     40     -24.7069      2.00000
     41     -24.7069      2.00000
     42     -24.7069      2.00000
     43     -24.7053      2.00000
     44     -24.7053      2.00000
     45     -24.7053      2.00000
     46     -24.6953      2.00000
     47     -24.6919      2.00000
     48     -24.6919      2.00000
     49      -1.0784      2.00000
     50       1.0858      2.00000
     51       1.0858      2.00000
     52       1.0963      2.00000
     53       1.0963      2.00000
     54       1.0963      2.00000
     55       1.0996      2.00000
     56       1.0996      2.00000
     57       1.0996      2.00000
     58       2.2768      2.00000
     59       2.2768      2.00000
     60       2.2768      2.00000
[...]
    106       7.5154      0.00000
    107       7.5154      0.00000
    108       7.5154      0.00000
    109       8.0671      0.00000
    110       8.0671      0.00000
    111       8.0943      0.00000
    112       8.0943      0.00000
    113       8.0943      0.00000
    114       8.1117      0.00000
    115       8.1117      0.00000
    116       8.1117      0.00000
    117       8.7816      0.00000
    118       8.7837      0.00000
    119       8.8163      0.00000
    120       8.8342      0.00000

[...]

 k-point   220 :       0.4750    0.4750    0.4750
  band No.  band energies     occupation
      1     -25.7203      2.00000
      2     -25.7203      2.00000
      3     -25.7203      2.00000
      4     -25.7192      2.00000
      5     -25.7192      2.00000
      6     -25.7192      2.00000
      7     -25.6900      2.00000
      8     -25.6900      2.00000
      9     -25.6874      2.00000
     10     -25.6874      2.00000
     11     -25.6580      2.00000
     12     -25.6580      2.00000
     13     -25.6580      2.00000
     14     -25.6553      2.00000
     15     -25.6553      2.00000
     16     -25.6553      2.00000
     17     -25.6506      2.00000
     18     -25.6238      2.00000
     19     -25.6238      2.00000
     20     -25.6238      2.00000
     21     -25.5935      2.00000
     22     -25.5935      2.00000
     23     -25.5935      2.00000
     24     -25.5604      2.00000
     25     -24.9897      2.00000
     26     -24.9666      2.00000
     27     -24.9666      2.00000
     28     -24.9666      2.00000
     29     -24.9454      2.00000
     30     -24.9454      2.00000
     31     -24.9454      2.00000
     32     -24.9265      2.00000
     33     -24.8926      2.00000
     34     -24.8926      2.00000
     35     -24.8926      2.00000
     36     -24.8860      2.00000
     37     -24.8860      2.00000
     38     -24.8791      2.00000
     39     -24.8791      2.00000
     40     -24.8791      2.00000
     41     -24.8535      2.00000
     42     -24.8535      2.00000
     43     -24.8535      2.00000
     44     -24.8476      2.00000
     45     -24.8476      2.00000
     46     -24.8417      2.00000
     47     -24.8417      2.00000
     48     -24.8417      2.00000
     49       1.6461      2.00000
     50       1.7891      2.00000
     51       1.7891      2.00000
     52       1.7891      2.00000
     53       1.9329      2.00000
     54       1.9329      2.00000
     55       1.9329      2.00000
     56       2.0869      2.00000
     57       3.0934      2.00000
     58       3.0934      2.00000
     59       3.1335      2.00000
     60       3.1335      2.00000
[...]
    106       8.1903      0.00000
    107       8.1917      0.00000
    108       8.1917      0.00000
    109       8.1917      0.00000
    110       8.2171      0.00000
    111       8.2171      0.00000
    112       8.2171      0.00000
    113       8.4784      0.00000
    114       8.4784      0.00000
    115       8.4784      0.00000
    116       8.5158      0.00000
    117       8.5158      0.00000
    118       8.5158      0.00000
    119       8.6215      0.00000
    120       8.6217      0.00000

 soft charge-density along one line, spin component           1
         0         1         2         3         4         5         6         7         8         9
 total charge-density along one line

------------------------ aborting loop because EDIFF is reached ----------------------------------------

  FORCE on cell =-STRESS in cart. coord.  units (eV):
  Direction    XX          YY          ZZ          XY          YZ          ZX
  Alpha Z  1996.84191  1996.84191  1996.84191
  Ewald   -5122.73989 -5122.73989 -5122.73989     0.00000     0.00000     0.00000
  Hartree   640.65378   640.65378   640.65378    -0.00000    -0.00000    -0.00000
  E(xc)    -750.16112  -750.16112  -750.16112    -0.00000     0.00000     0.00000
  Local    1644.45387  1644.45387  1644.45387     0.00000    -0.00000     0.00000
  n-local  -664.78642  -671.70522  -674.13719    -4.55977    -2.70428    -2.58488
  augment   418.79587   418.79587   418.79587     0.00000    -0.00000     0.00000
  Kinetic  1844.41701  1828.48402  1817.53311   -11.81953    -3.77168    -5.47383
  Fock        0.00000     0.00000     0.00000     0.00000     0.00000     0.00000
  Total     -12.22048   -12.22048   -12.22048     0.00000     0.00000    -0.00000
  in kB     -68.05362   -68.05362   -68.05362     0.00000     0.00000    -0.00000

 VOLUME and BASIS-vectors are now :
  energy-cutoff  :      300.00
  volume of cell :      287.71
      direct lattice vectors                 reciprocal lattice vectors
     6.601600000  0.000000000  0.000000000     0.151478429  0.000000000  0.000000000
     0.000000000  6.601600000  0.000000000     0.000000000  0.151478429  0.000000000
     0.000000000  0.000000000  6.601600000     0.000000000  0.000000000  0.151478429

  length of vectors
     6.601600000  6.601600000  6.601600000     0.151478429  0.151478429  0.151478429

 FORCES acting on ions
    electron-ion (+dipol)            ewald-force                    non-local-force                 convergence-correction
   -.356E-13 -.255E-13 -.607E-13   0.128E-12 0.426E-13 0.711E-13   -.185E-21 -.926E-22 -.172E-21   -.477E-13 0.909E-15 0.292E-13
   0.106E-12 0.114E-12 0.458E-13   0.128E-12 0.840E-13 0.843E-13   0.794E-22 -.139E-21 -.794E-22   -.486E-13 -.604E-13 -.109E-13
   0.214E-12 -.159E-13 -.556E-13   0.426E-13 0.284E-13 0.426E-13   0.212E-21 0.238E-21 0.476E-21   0.165E-13 0.378E-14 0.379E-13
   0.412E-12 -.567E-12 -.640E-12   0.428E-13 0.422E-13 0.698E-13   0.000E+00 0.529E-22 -.212E-21   0.251E-13 -.828E-13 -.233E-13
   -.346E-13 0.220E-12 -.621E-13   0.711E-13 0.000E+00 0.142E-13   0.318E-21 -.390E-21 0.172E-21   -.206E-13 -.344E-13 0.259E-13
   0.105E-12 0.415E-12 0.526E-13   0.663E-13 0.426E-13 -.130E-14   0.265E-22 -.364E-21 -.397E-22   -.544E-13 0.212E-13 -.241E-14
   -.347E-13 -.254E-13 0.257E-12   -.142E-13 -.142E-13 0.142E-13   0.291E-21 0.397E-21 0.159E-21   -.335E-13 -.112E-14 -.648E-13
   0.106E-12 0.122E-12 0.486E-12   -.138E-13 -.235E-14 0.142E-13   -.344E-21 0.556E-21 0.596E-21   -.550E-13 -.599E-13 -.308E-13
   0.213E-12 0.214E-12 -.621E-13   -.142E-13 0.000E+00 0.142E-13   -.529E-22 -.397E-21 0.596E-21   0.872E-14 -.448E-13 0.369E-13
   0.413E-12 0.519E-12 -.134E-11   -.143E-13 0.426E-13 0.180E-13   0.476E-21 -.132E-21 0.318E-21   0.282E-13 0.380E-13 -.197E-13
   -.337E-13 0.220E-12 0.257E-12   -.142E-13 -.426E-13 0.142E-13   0.106E-21 -.159E-21 -.110E-20   -.444E-14 -.350E-13 -.696E-13
   0.106E-12 0.398E-12 0.470E-12   -.117E-13 -.284E-13 0.143E-13   -.212E-21 0.397E-21 0.490E-21   -.618E-13 0.220E-13 -.363E-13
   0.215E-12 -.221E-13 0.253E-12   -.995E-13 0.000E+00 -.568E-13   0.318E-21 0.245E-21 -.384E-21   0.308E-14 -.927E-15 -.709E-13
   0.413E-12 -.127E-11 0.586E-12   -.997E-13 0.147E-13 -.142E-13   -.926E-21 0.549E-21 -.278E-21   0.277E-13 -.807E-13 -.207E-13
   0.213E-12 0.215E-12 0.252E-12   -.128E-12 -.711E-13 -.995E-13   0.397E-21 0.926E-22 0.185E-21   -.776E-14 -.424E-13 -.699E-13
   0.414E-12 0.192E-11 0.199E-11   -.128E-12 -.287E-13 -.285E-13   0.344E-21 0.549E-21 0.146E-21   0.320E-13 0.368E-13 -.200E-13
   0.279E-11 0.244E-11 0.243E-11   -.582E-13 0.110E-12 0.171E-12   0.847E-21 0.140E-20 0.874E-21   -.192E-12 -.320E-12 -.309E-12

 POSITION                                       TOTAL-FORCE (eV/Angst)
      0.00000      0.00000      0.00000        -0.000000      0.000000      0.000000
      1.65040      1.65040      1.65040         0.000000      0.000000      0.000000
      3.30080      0.00000      0.00000         0.000000      0.000000     -0.000000
      4.95120      1.65040      1.65040        -0.000000      0.000000      0.000000
      0.00000      3.30080      0.00000         0.000000     -0.000000     -0.000000
      1.65040      4.95120      1.65040        -0.000000     -0.000000     -0.000000
      0.00000      0.00000      3.30080        -0.000000     -0.000000     -0.000000
      1.65040      1.65040      4.95120         0.000000     -0.000000      0.000000
      3.30080      3.30080      0.00000        -0.000000     -0.000000     -0.000000
      4.95120      4.95120      1.65040         0.000000     -0.000000      0.000000
      0.00000      3.30080      3.30080         0.000000     -0.000000     -0.000000
      1.65040      4.95120      4.95120        -0.000000      0.000000     -0.000000
      3.30080      0.00000      3.30080         0.000000      0.000000      0.000000
      4.95120      1.65040      4.95120        -0.000000     -0.000000     -0.000000
      3.30080      3.30080      3.30080         0.000000     -0.000000      0.000000
      4.95120      4.95120      4.95120         0.000000      0.000000     -0.000000
    total drift:                                0.000000      0.000000      0.000000

  FREE ENERGIE OF THE ION-ELECTRON SYSTEM (eV)
  free  energy   TOTEN  =      -178.17430922 eV

  energy  without entropy=     -178.17430922  energy(sigma->0) =     -178.17430922

 writing wavefunctions
 BZINTS: Fermi energy:  4.840610;176.000000 electrons
         Band energy:***********;  BLOECHL correction: -0.048033