 vasp.5.4.4.18Apr17-6-g9f103f2a35 (build May 20 2018 16:52:39) complex

 executed on             LinuxIFC date 2022.11.07  01:03:13

 INCAR:
 POTCAR:    PAW Ni
 POTCAR:    PAW O
 POTCAR:    PAW Ni
   VRHFIN =Ni:

   TITEL  = PAW Ni
   POMASS =   58.690; ZVAL   =   10.000    mass and valenz
   ENMAX  =  269.561; ENMIN  =  202.171 eV
   QCUT   =   -4.451; QGAM   =    8.902    optimization parameters

   Description
     l     E      TYP  RCUT    TYP  RCUT
     2   .000     23  2.300
     2   .000     23  2.300
     0   .000     23  2.300
     0   .000     23  2.300
     1  -.200     23  2.300
     1   .000     23  2.300
     3   .000      7   .000

 POTCAR:    PAW O
   VRHFIN =O: s2p4

   TITEL  = PAW O
   POMASS =   16.000; ZVAL   =    6.000    mass and valenz
   ENMAX  =  400.000; ENMIN  =  300.000 eV
   QCUT   =   -5.520; QGAM   =   11.040    optimization parameters

   Description
     l     E      TYP  RCUT    TYP  RCUT
     0   .000     23  1.200
     0  -.700     23  1.200
     1   .000     23  1.520
     1   .600     23  1.520
     2   .000      7  1.500

  PAW Ni                                :
  PAW O                                 :

 POSCAR: NiO AFM
  positions in cartesian coordinates
  velocities in cartesian coordinates
 exchange correlation table for  LEXCH =        7
   RHO(1)=    0.500       N(1)  =     2000
   RHO(2)=  100.500       N(2)  =     4000

 ion  position               nearest neighbor table
   1  0.000  0.000  0.000-   4 2.08   4 2.08   4 2.08   3 2.08   3 2.08   3 2.08   2 2.95   2 2.95
                             2 2.95   2 2.95   2 2.95   2 2.95
   2  0.500  0.500  0.500-   3 2.08   3 2.08   3 2.08   4 2.08   4 2.08   4 2.08   1 2.95   1 2.95
                             1 2.95   1 2.95   1 2.95   1 2.95
   3  0.250  0.250  0.250-   1 2.08   1 2.08   1 2.08   2 2.08   2 2.08   2 2.08
   4  0.750  0.750  0.750-   2 2.08   2 2.08   2 2.08   1 2.08   1 2.08   1 2.08

  LATTYP: Found a trigonal (rhomboedric) cell.
 ALAT       =     5.1071861137
 COS(alpha) =     0.8333333333

  Lattice vectors:

 A1 = (   4.1700000000,   2.0850000000,   2.0850000000)
 A2 = (   2.0850000000,   4.1700000000,   2.0850000000)
 A3 = (   2.0850000000,   2.0850000000,   4.1700000000)

Analysis of symmetry for initial positions (statically):
 Subroutine PRICEL returns following result:

  LATTYP: Found a face centered cubic cell.
 ALAT       =     4.1700000000

[...]

   2 primitive cells build up your supercell.

 Routine SETGRP: Setting up the symmetry group for a
 trigonal (rhombohedral) supercell.

 Subroutine GETGRP returns: Found 12 space group operations
 (whereof 12 operations were pure point group operations)
 out of a pool of 12 trial point group operations.

The static configuration has the point symmetry D_3d.

Analysis of symmetry for dynamics (positions and initial velocities):
 Subroutine PRICEL returns following result:

[...]

The dynamic configuration has the point symmetry D_3d.

Analysis of structural, dynamic, and magnetic symmetry:
 Subroutine PRICEL returns following result:

  LATTYP: Found a face centered cubic cell.
 ALAT       =     4.1700000000

  Lattice vectors:

 A1 = (   2.0850000000,   0.0000000000,  -2.0850000000)
 A2 = (   0.0000000000,   2.0850000000,  -2.0850000000)
 A3 = (   2.0850000000,   2.0850000000,   0.0000000000)

   2 primitive cells build up your supercell.

 Routine SETGRP: Setting up the symmetry group for a
 trigonal (rhombohedral) supercell.

 Subroutine GETGRP returns: Found 12 space group operations
 (whereof 12 operations were pure point group operations)
 out of a pool of 12 trial point group operations.

The magnetic configuration has the point symmetry D_3d.

 Subroutine INISYM returns: Found 12 space group operations
 (whereof 12 operations are pure point group operations),
 and found     2 'primitive' translations

 KPOINTS: 4x4x4

Automatic generation of k-mesh.
Space group operators:
 irot       det(A)        alpha          n_x          n_y          n_z        tau_x        tau_y        tau_z
    1     1.000000     0.000000     1.000000     0.000000     0.000000     0.000000     0.000000     0.000000
    2    -1.000000     0.000000     1.000000     0.000000     0.000000     0.000000     0.000000     0.000000
    3     1.000000   180.000000     0.000000     0.707107    -0.707107     0.000000     0.000000     0.000000
    4    -1.000000   180.000000     0.000000     0.707107    -0.707107     0.000000     0.000000     0.000000
    5     1.000000   120.000000    -0.577350    -0.577350    -0.577350     0.000000     0.000000     0.000000
    6    -1.000000   120.000000    -0.577350    -0.577350    -0.577350     0.000000     0.000000     0.000000
    7     1.000000   180.000000     0.707107    -0.707107     0.000000     0.000000     0.000000     0.000000
    8    -1.000000   180.000000     0.707107    -0.707107     0.000000     0.000000     0.000000     0.000000
    9     1.000000   120.000000     0.577350     0.577350     0.577350     0.000000     0.000000     0.000000
   10    -1.000000   120.000000     0.577350     0.577350     0.577350     0.000000     0.000000     0.000000
   11     1.000000   180.000000     0.707107     0.000000    -0.707107     0.000000     0.000000     0.000000
   12    -1.000000   180.000000     0.707107     0.000000    -0.707107     0.000000     0.000000     0.000000

 Subroutine IBZKPT returns following result:

 Found     10 irreducible k-points:

 Following reciprocal coordinates:
            Coordinates               Weight
  0.125000  0.125000  0.125000      2.000000
  0.375000  0.125000  0.125000      6.000000
 -0.375000  0.125000  0.125000      6.000000
 -0.125000  0.125000  0.125000      6.000000
  0.375000  0.375000  0.125000      6.000000
 -0.375000  0.375000  0.125000     12.000000
 -0.125000  0.375000  0.125000     12.000000
 -0.375000 -0.375000  0.125000      6.000000
  0.375000  0.375000  0.375000      2.000000
 -0.375000  0.375000  0.375000      6.000000

 Following cartesian coordinates:
            Coordinates               Weight
  0.062500  0.062500  0.062500      2.000000
  0.437500 -0.062500 -0.062500      6.000000
 -0.687500  0.312500  0.312500      6.000000
 -0.312500  0.187500  0.187500      6.000000
  0.312500  0.312500 -0.187500      6.000000
 -0.812500  0.687500  0.187500     12.000000
 -0.437500  0.562500  0.062500     12.000000
 -0.437500 -0.437500  0.562500      6.000000
  0.187500  0.187500  0.187500      2.000000
 -0.937500  0.562500  0.562500      6.000000

 TETIRR: Found     32 inequivalent tetrahedra from      384

 SYSTEM =  NiO_af2
 POSCAR =  NiO AFM

 Startparameter for this run:
   NWRITE =      2    write-flag & timer
   PREC   = normal    normal or accurate (medium, high low for compatibility)
   ISTART =      0    job   : 0-new  1-cont  2-samecut
   ICHARG =      2    charge: 1-file 2-atom 10-const
   ISPIN  =      2    spin polarized calculation?
   LNONCOLLINEAR =      F non collinear calculations
   LSORBIT =      F    spin-orbit coupling
   INIWAV =      1    electr: 0-lowe 1-rand  2-diag
   LASPH  =      F    aspherical Exc in radial PAW
   METAGGA=      F    non-selfconsistent MetaGGA calc.

 Electronic Relaxation 1
   ENCUT  =  400.0 eV  29.40 Ry    5.42 a.u.   8.33  8.33  8.33*2*pi/ulx,y,z
   ENINI  =  400.0     initial cutoff
   ENAUG  =  605.4 eV  augmentation charge cutoff
   NELM   =     60;   NELMIN=  2; NELMDL= -5     # of ELM steps
   EDIFF  = 0.1E-03   stopping-criterion for ELM
   LREAL  =      F    real-space projection
   NLSPLINE    = F    spline interpolate recip. space projectors
   LCOMPAT=      F    compatible to vasp.4.4
   GGA_COMPAT  = T    GGA compatible to vasp.4.4-vasp.4.6
   LMAXPAW     = -100 max onsite density
   LMAXMIX     =    2 max onsite mixed and CHGCAR
   VOSKOWN=      0    Vosko Wilk Nusair interpolation
   ROPT   =    0.00000   0.00000
 Ionic relaxation
   EDIFFG = 0.1E-02   stopping-criterion for IOM
   NSW    =      0    number of steps for IOM
   NBLOCK =      1;   KBLOCK =      1    inner block; outer block
   IBRION =     -1    ionic relax: 0-MD 1-quasi-New 2-CG
   NFREE  =      0    steps in history (QN), initial steepest desc. (CG)
   ISIF   =      2    stress and relaxation
   IWAVPR =     10    prediction:  0-non 1-charg 2-wave 3-comb
   ISYM   =      2    0-nonsym 1-usesym 2-fastsym
   LCORR  =      T    Harris-Foulkes like correction to forces

   POTIM  = 0.5000    time-step for ionic-motion
   TEIN   =    0.0    initial temperature
   TEBEG  =    0.0;   TEEND  =   0.0 temperature during run
   SMASS  =  -3.00    Nose mass-parameter (am)
   estimated Nose-frequenzy (Omega)   =  0.10E-29 period in steps =****** mass=  -0.596E-27a.u.
   SCALEE = 1.0000    scale energy and forces
   NPACO  =    256;   APACO  = 16.0  distance and # of slots for P.C.
   PSTRESS=    0.0 pullay stress

  Mass of Ions in am
   POMASS =  58.69 16.00
  Ionic Valenz
   ZVAL   =  10.00  6.00
  Atomic Wigner-Seitz radii
  virtual crystal weights
   VCA    =   1.00  1.00
   NELECT =      32.0000    total number of electrons
   NUPDOWN=      -1.0000    fix difference up-down

 DOS related values:
   EMIN   =  10.00;   EMAX   =-10.00  energy-range for DOS
   EFERMI =   0.00
   ISMEAR =    -5;   SIGMA  =   0.20  broadening in eV -4-tet -1-fermi 0-gaus

 Electronic relaxation 2 (details)
   IALGO  =     38    algorithm
   LDIAG  =      T    sub-space diagonalisation (order eigenvalues)
   LSUBROT=      F    optimize rotation matrix (better conditioning)
   TURBO    =      0    0=normal 1=particle mesh
   IRESTART =      0    0=no restart 2=restart with 2 vectors
   NREBOOT  =      0    no. of reboots
   NMIN     =      0    reboot dimension
   EREF     =   0.00    reference energy to select bands
   IMIX   =      4    mixing-type and parameters
     AMIX     =   0.40;   BMIX     =  1.00
     AMIX_MAG =   1.60;   BMIX_MAG =  1.00
     AMIN     =   0.10
     WC   =   100.;   INIMIX=   1;  MIXPRE=   1;  MAXMIX= -45

 Intra band minimization:
   WEIMIN = 0.0000     energy-eigenvalue tresh-hold
   EBREAK =  0.13E-05  absolut break condition
   DEPER  =   0.30     relativ break condition

   TIME   =   0.40     timestep for ELM

  volume/ion in A,a.u.               =       9.06        61.17
  Fermi-wavevector in a.u.,A,eV,Ry     =   1.570358  2.967547 33.552312  2.466025
  Thomas-Fermi vector in A             =   2.672104

 Write flags
   LWAVE        =      F    write WAVECAR
   LDOWNSAMPLE  =      F    k-point downsampling of WAVECAR
   LCHARG       =      T    write CHGCAR
   LVTOT        =      F    write LOCPOT, total local potential
   LVHAR        =      F    write LOCPOT, Hartree potential only
   LELF         =      F    write electronic localiz. function (ELF)
   LORBIT       =     11    0 simple, 1 ext, 2 COOP (PROOUT), +10 PAW based schemes

 Dipole corrections
   LMONO  =      F    monopole corrections only (constant potential shift)
   LDIPOL =      F    correct potential (dipole corrections)
   IDIPOL =      0    1-x, 2-y, 3-z, 4-all directions
   EPSILON=  1.0000000 bulk dielectric constant

 LDA+U is selected, type is set to LDAUTYPE =  2
   angular momentum for each species LDAUL =     2   -1
   U (eV)           for each species LDAUU =   7.0  0.0
   J (eV)           for each species LDAUJ =   0.0  0.0
 Exchange correlation treatment:
   GGA     =    --    GGA type
   VOSKOWN=      0    Vosko Wilk Nusair interpolation
   LHFCALC =     F    Hartree Fock is set to
   LHFONE  =     F    Hartree Fock one center treatment
   AEXX    =    0.0000 exact exchange contribution

 Linear response parameters
   LEPSILON=     F    determine dielectric tensor
   LRPA    =     F    only Hartree local field effects (RPA)
   LNABLA  =     F    use nabla operator in PAW spheres
   LVEL    =     F    velocity operator in full k-point grid
   LINTERFAST=   F  fast interpolation
   KINTER  =     0    interpolate to denser k-point grid
   CSHIFT  =0.1000    complex shift for real part using Kramers Kronig
   OMEGAMAX=  -1.0    maximum frequency
   DEG_THRESHOLD= 0.2000000E-02 threshold for treating states as degnerate
   RTIME   =   -0.100 relaxation time in fs
  (WPLASMAI=    0.000 imaginary part of plasma frequency in eV, 0.658/RTIME)
   DFIELD  = 0.0000000 0.0000000 0.0000000 field for delta impulse in time

 Orbital magnetization related:
   ORBITALMAG=     F  switch on orbital magnetization
   LCHIMAG   =     F  perturbation theory with respect to B field
   DQ        =  0.001000  dq finite difference perturbation B field
   LLRAUG    =     F  two centre corrections for induced B field

 Static calculation
 charge density and potential will be updated during run
 spin polarized calculation
 Variant of blocked Davidson
 Davidson routine will perform the subspace rotation
 perform sub-space diagonalisation
    after iterative eigenvector-optimisation
 modified Broyden-mixing scheme, WC =      100.0
 initial mixing is a Kerker type mixing with AMIX =  0.4000 and BMIX =      1.0000
 Hartree-type preconditioning will be used
 using additional bands            4
 reciprocal scheme for non local part
 use partial core corrections
 calculate Harris-corrections to forces
   (improved forces if not selfconsistent)
 use gradient corrections
 use of overlap-Matrix (Vanderbilt PP)
 Fermi weights with tetrahedron method with Bloechl corrections

  energy-cutoff  :      400.00
  volume of cell :       36.26
      direct lattice vectors                 reciprocal lattice vectors
     4.170000000  2.085000000  2.085000000     0.359712230 -0.119904077 -0.119904077
     2.085000000  4.170000000  2.085000000    -0.119904077  0.359712230 -0.119904077
     2.085000000  2.085000000  4.170000000    -0.119904077 -0.119904077  0.359712230

  length of vectors
     5.107186114  5.107186114  5.107186114     0.397676833  0.397676833  0.397676833

 k-points in units of 2pi/SCALE and weight: 4x4x4
   0.06250000  0.06250000  0.06250000       0.031
   0.43750000 -0.06250000 -0.06250000       0.094
  -0.68750000  0.31250000  0.31250000       0.094
  -0.31250000  0.18750000  0.18750000       0.094
   0.31250000  0.31250000 -0.18750000       0.094
  -0.81250000  0.68750000  0.18750000       0.188
  -0.43750000  0.56250000  0.06250000       0.188
  -0.43750000 -0.43750000  0.56250000       0.094
   0.18750000  0.18750000  0.18750000       0.031
  -0.93750000  0.56250000  0.56250000       0.094

 k-points in reciprocal lattice and weights: 4x4x4
   0.12500000  0.12500000  0.12500000       0.031
   0.37500000  0.12500000  0.12500000       0.094
  -0.37500000  0.12500000  0.12500000       0.094
  -0.12500000  0.12500000  0.12500000       0.094
   0.37500000  0.37500000  0.12500000       0.094
  -0.37500000  0.37500000  0.12500000       0.188
  -0.12500000  0.37500000  0.12500000       0.188
  -0.37500000 -0.37500000  0.12500000       0.094
   0.37500000  0.37500000  0.37500000       0.031
  -0.37500000  0.37500000  0.37500000       0.094

 position of ions in fractional coordinates (direct lattice)
   0.00000000  0.00000000  0.00000000
   0.50000000  0.50000000  0.50000000
   0.25000000  0.25000000  0.25000000
   0.75000000  0.75000000  0.75000000

 position of ions in cartesian coordinates  (Angst):
   0.00000000  0.00000000  0.00000000
   4.17000000  4.17000000  4.17000000
   2.08500000  2.08500000  2.08500000
   6.25500000  6.25500000  6.25500000

 k-point  1 :   0.1250 0.1250 0.1250  plane waves:     666
 k-point  2 :   0.3750 0.1250 0.1250  plane waves:     658
 k-point  3 :  -0.3750 0.1250 0.1250  plane waves:     659
 k-point  4 :  -0.1250 0.1250 0.1250  plane waves:     654
 k-point  5 :   0.3750 0.3750 0.1250  plane waves:     658
 k-point  6 :  -0.3750 0.3750 0.1250  plane waves:     660
 k-point  7 :  -0.1250 0.3750 0.1250  plane waves:     657
 k-point  8 :  -0.3750-0.3750 0.1250  plane waves:     668
 k-point  9 :   0.3750 0.3750 0.3750  plane waves:     652
 k-point 10 :  -0.3750 0.3750 0.3750  plane waves:     654

 maximum and minimum number of plane-waves per node :       668      652

 maximum number of plane-waves:       668
 maximum index in each direction:
   IXMAX=    8   IYMAX=    8   IZMAX=    8
   IXMIN=   -8   IYMIN=   -8   IZMIN=   -8

 serial   3D FFT for wavefunctions
 parallel 3D FFT for charge:
    minimum data exchange during FFTs selected (reduces bandwidth)

 Broyden mixing: mesh for mixing (old mesh)
   NGX = 17   NGY = 17   NGZ = 17
  (NGX  = 56   NGY  = 56   NGZ  = 56)
  gives a total of   4913 points

 initial charge density was supplied:
 charge density of overlapping atoms calculated
 number of electron      32.0000000 magnetization       0.0000000
 keeping initial charge density in first step

 Maximum index for augmentation-charges        19063 (set IRDMAX)

 First call to EWALD:  gamma=   0.536
 Maximum number of real-space cells 3x 3x 3
 Maximum number of reciprocal cells 4x 4x 4

--------------------------------------- Iteration      1(   1)  ---------------------------------------

 BZINTS: Fermi energy: 16.723142; 32.000000 electrons
         Band energy: 216.421168;  BLOECHL correction: -0.327632

 eigenvalue-minimisations  :   816
 total energy-change (2. order) : 0.2338661E+03  (-0.1428321E+04)
 number of electron      32.0000000 magnetization       0.0000000
 augmentation part       32.0000000 magnetization       0.0000000

 Free energy of the ion-electron system (eV)
  alpha Z        PSCENC =       217.71629331
  Ewald energy   TEWEN  =     -2604.77031634
  -Hartree energ DENC   =      -652.85252222
  -exchange      EXHF   =         0.00000000
  -V(xc)+E(xc)   XCENC  =       118.86465051
  PAW double counting   =      2234.65535088    -2320.91104823
  entropy T*S    EENTRO =         0.00000000
  eigenvalues    EBANDS =       216.42116831
  atomic energy  EATOM  =      3024.74254395
  Solvation  Ediel_sol  =         0.00000000
  free energy    TOTEN  =       233.86612016 eV

  energy without entropy =      233.86612016  energy(sigma->0) =      233.86612016

[...]

 eigenvalue-minimisations  :   844
 total energy-change (2. order) :-0.2269500E+03  (-0.2110985E+03)
 number of electron      32.0000000 magnetization       0.0000000
 augmentation part       32.0000000 magnetization       0.0000000

[...]

 Broyden mixing:
  rms(total) = 0.14279E+01    rms(broyden)= 0.14230E+01
  rms(prec ) = 0.28315E+01
  weight for this iteration     100.00

[...]

 eigenvalues of (default mixing * dielectric matrix)
  average eigenvalue GAMMA=   0.7368
  0.7368

[...]

 eigenvalue-minimisations  :  1096
 total energy-change (2. order) : 0.1799124E-01  (-0.7421570E-02)
 number of electron      32.0000048 magnetization      -0.0000000
 augmentation part       13.7304606 magnetization      -0.0000000

[...]

 Broyden mixing:
  rms(total) = 0.77214E-02    rms(broyden)= 0.77179E-02
  rms(prec ) = 0.11559E-01
  weight for this iteration     100.00

 eigenvalues of (default mixing * dielectric matrix)
  average eigenvalue GAMMA=   1.1088
  2.5343  1.0098  1.0098  0.7246  0.7246  0.6498

[...]

--------------------------------------- Iteration      1(  12)  ---------------------------------------

[...]

 eigenvalue-minimisations  :   792
 total energy-change (2. order) :-0.8634889E-04  (-0.6709452E-04)
 number of electron      32.0000048 magnetization       0.0000000
 augmentation part       13.7176274 magnetization       0.0000000

 Free energy of the ion-electron system (eV)
  alpha Z        PSCENC =       217.71629331
  Ewald energy   TEWEN  =     -2604.77031634
  -Hartree energ DENC   =      -632.42494170
  -exchange      EXHF   =         0.00000000
  -V(xc)+E(xc)   XCENC  =       119.27041788
  PAW double counting   =      2353.76745992    -2441.93578751
  entropy T*S    EENTRO =         0.00000000
  eigenvalues    EBANDS =       -56.11798364
  atomic energy  EATOM  =      3024.74254395
  Solvation  Ediel_sol  =         0.00000000
  free energy    TOTEN  =       -19.75231413 eV

  energy without entropy =      -19.75231413  energy(sigma->0) =      -19.75231413

 average (electrostatic) potential at core
  the test charge radii are     0.9791  0.7215
  (the norm of the test charge is              1.0000)
       1 -43.1156       2 -43.1156       3 -71.0871       4 -71.0871

 E-fermi :   3.4478     XC(G=0): -12.7213     alpha+bet :-11.2748

 spin component 1

 k-point     1 :       0.1250    0.1250    0.1250
  band No.  band energies     occupation
      1     -14.6507      1.00000
      2     -13.3029      1.00000
      3      -3.4217      1.00000
      4      -2.8590      1.00000
      5      -2.8590      1.00000
      6      -1.0599      1.00000
      7      -1.0599      1.00000
      8      -0.8202      1.00000
      9       0.0655      1.00000
     10       0.0655      1.00000
     11       1.3317      1.00000
     12       2.4964      1.00000
     13       2.4964      1.00000
     14       2.5063      1.00000
     15       3.0186      1.00000
     16       3.0186      1.00000
     17       7.3613      0.00000
     18       7.8480      0.00000
     19       7.8480      0.00000
     20      10.9609      0.00000

[...]

 spin component 2

[...]

 k-point    10 :      -0.3750    0.3750    0.3750
  band No.  band energies     occupation
      1     -13.7636      1.00000
      2     -13.5600      1.00000
      3      -3.2354      1.00000
      4      -2.7293      1.00000
      5      -1.9645      1.00000
      6      -1.6369      1.00000
      7      -1.0249      1.00000
      8      -0.9602      1.00000
      9      -0.4292      1.00000
     10       0.1473      1.00000
     11       0.5336      1.00000
     12       1.3496      1.00000
     13       2.2182      1.00000
     14       2.3432      1.00000
     15       2.4610      1.00000
     16       2.7965      1.00000
     17       7.2692      0.00000
     18       7.9470      0.00000
     19      11.5213      0.00000
     20      11.7959      0.00000

 soft charge-density along one line, spin component           1
         0         1         2         3         4         5         6         7         8         9
 total charge-density along one line

 soft charge-density along one line, spin component           2
         0         1         2         3         4         5         6         7         8         9
 total charge-density along one line

------------------------ aborting loop because EDIFF is reached ----------------------------------------

 total charge

# of ion       s       p       d       tot
    1        0.344   0.428   8.247   9.019
    2        0.344   0.428   8.247   9.019
    3        1.574   3.497   0.000   5.070
    4        1.574   3.497   0.000   5.070
tot          3.834   7.849  16.495  28.178

 magnetization (x)

[...]

  FORCE on cell =-STRESS in cart. coord.  units (eV):
  Direction    XX          YY          ZZ          XY          YZ          ZX
  Alpha Z   217.71629   217.71629   217.71629
  Ewald    -868.25805  -868.25805  -868.25805     0.00000    -0.00000    -0.00000
  Hartree   210.84083   210.84083   210.84083    -0.01658    -0.01658    -0.01658
  E(xc)    -171.37187  -171.37187  -171.37187    -0.00037    -0.00037    -0.00037
  Local     183.35130   183.35130   183.35130     0.03245     0.03245     0.03245
  n-local  -108.64235  -111.94619  -110.39198    -0.06370     0.61368    -0.49888
  augment   120.45201   120.45201   120.45201    -0.04012    -0.04012    -0.04012
  Kinetic   413.48978   419.66809   416.95022     0.19835    -1.54210     1.28291
  Fock        0.00000     0.00000     0.00000     0.00000     0.00000     0.00000
  Total      -0.89363    -0.89363    -0.89363    -0.05559    -0.05559    -0.05559
  in kB     -39.49048   -39.49048   -39.49048    -2.45639    -2.45639    -2.45639

 VOLUME and BASIS-vectors are now :
  energy-cutoff  :      400.00
  volume of cell :       36.26
      direct lattice vectors                 reciprocal lattice vectors
     4.170000000  2.085000000  2.085000000     0.359712230 -0.119904077 -0.119904077
     2.085000000  4.170000000  2.085000000    -0.119904077  0.359712230 -0.119904077
     2.085000000  2.085000000  4.170000000    -0.119904077 -0.119904077  0.359712230

  length of vectors
     5.107186114  5.107186114  5.107186114     0.397676833  0.397676833  0.397676833

 FORCES acting on ions
    electron-ion (+dipol)            ewald-force                    non-local-force                 convergence-correction
   -.141E-12 -.569E-13 -.277E-13   0.000E+00 -.284E-13 -.568E-13   -.159E-21 -.265E-21 0.318E-21   -.617E-15 0.314E-13 0.276E-13
   0.731E-12 0.207E-11 0.211E-11   0.568E-13 0.284E-13 0.000E+00   0.106E-21 -.212E-21 -.106E-21   -.596E-13 -.367E-13 -.346E-13
   -.437E-12 0.645E-12 0.654E-12   -.426E-13 -.131E-13 0.169E-13   0.132E-21 -.106E-21 0.000E+00   0.224E-13 0.291E-13 0.183E-13
   0.240E-11 -.896E-12 -.893E-12   -.152E-13 0.134E-13 0.426E-13   -.106E-21 -.529E-22 0.106E-21   -.997E-14 -.163E-13 -.215E-13
   0.255E-11 0.176E-11 0.184E-11   -.869E-15 0.280E-15 0.262E-14   -.265E-22 -.635E-21 0.318E-21   -.478E-13 0.746E-14 -.102E-13

 POSITION                                       TOTAL-FORCE (eV/Angst)
      0.00000      0.00000      0.00000        -0.000000      0.000000     -0.000000
      4.17000      4.17000      4.17000        -0.000000      0.000000     -0.000000
      2.08500      2.08500      2.08500        -0.000000     -0.000000      0.000000
      6.25500      6.25500      6.25500         0.000000     -0.000000     -0.000000
    total drift:                                0.000000      0.000000      0.000000

  FREE ENERGIE OF THE ION-ELECTRON SYSTEM (eV)
  free  energy   TOTEN  =       -19.75231413 eV

  energy  without entropy=      -19.75231413  energy(sigma->0) =      -19.75231413

 total charge

[...]

 magnetization (x)

# of ion       s       p       d       tot
    1       -0.003  -0.006   1.756   1.747
    2        0.003   0.006  -1.756  -1.747
    3       -0.000   0.000   0.000   0.000
    4       -0.000   0.000   0.000   0.000
tot         -0.000   0.000  -0.000  -0.000

 BZINTS: Fermi energy:  3.447795; 32.000000 electrons
         Band energy: -56.117984;  BLOECHL correction:  0.000000