 vasp.5.4.4.18Apr17-6-g9f103f2a35 (build May 20 2018 16:52:39) complex

 executed on             LinuxIFC date 2022.11.07  01:31:55

 INCAR:
 POTCAR:    PAW_PBE Ni_pv 06Sep2000
 POTCAR:    PAW_PBE O 08Apr2002
 POTCAR:    PAW_PBE Ni_pv 06Sep2000
   VRHFIN =Ni:

   TITEL  = PAW_PBE Ni_pv 06Sep2000
   POMASS =   58.690; ZVAL   =   16.000    mass and valenz
   ENMAX  =  367.986; ENMIN  =  275.989 eV

 POTCAR:    PAW_PBE O 08Apr2002
   VRHFIN =O: s2p4

   TITEL  = PAW_PBE O 08Apr2002
   POMASS =   16.000; ZVAL   =    6.000    mass and valenz
   ENMAX  =  400.000; ENMIN  =  300.000 eV

  PAW_PBE Ni_pv 06Sep2000               :
  PAW_PBE O 08Apr2002                   :

 POSCAR: NiO
  positions in cartesian coordinates
 exchange correlation table for  LEXCH =        8
   RHO(1)=    0.500       N(1)  =     2000
   RHO(2)=  100.500       N(2)  =     4000

 ion  position               nearest neighbor table
   1  0.000  0.000  0.000-   4 2.08   4 2.08   4 2.08   3 2.08   3 2.08   3 2.08
   2  0.500  0.500  0.500-   3 2.08   3 2.08   3 2.08   4 2.08   4 2.08   4 2.08
   3  0.250  0.250  0.250-   1 2.08   1 2.08   1 2.08   2 2.08   2 2.08   2 2.08
   4  0.750  0.750  0.750-   2 2.08   2 2.08   2 2.08   1 2.08   1 2.08   1 2.08

  LATTYP: Found a trigonal (rhomboedric) cell.
 ALAT       =     5.1071861137
 COS(alpha) =     0.8333333333

  Lattice vectors:

 A1 = (   4.1700000000,   2.0850000000,   2.0850000000)
 A2 = (   2.0850000000,   4.1700000000,   2.0850000000)
 A3 = (   2.0850000000,   2.0850000000,   4.1700000000)

Analysis of symmetry for initial positions (statically):
 Subroutine PRICEL returns following result:

  LATTYP: Found a face centered cubic cell.
 ALAT       =     4.1700000000

[...]

   2 primitive cells build up your supercell.

 Routine SETGRP: Setting up the symmetry group for a
 trigonal (rhombohedral) supercell.

 Subroutine GETGRP returns: Found 12 space group operations
 (whereof 12 operations were pure point group operations)
 out of a pool of 12 trial point group operations.

The static configuration has the point symmetry D_3d.

Analysis of symmetry for dynamics (positions and initial velocities):
 Subroutine PRICEL returns following result:

[...]

The dynamic configuration has the point symmetry D_3d.

Analysis of structural, dynamic, and magnetic symmetry:
 Subroutine PRICEL returns following result:

  LATTYP: Found a face centered cubic cell.
 ALAT       =     4.1700000000

  Lattice vectors:

 A1 = (   2.0850000000,   0.0000000000,  -2.0850000000)
 A2 = (   0.0000000000,   2.0850000000,  -2.0850000000)
 A3 = (   2.0850000000,   2.0850000000,   0.0000000000)

   2 primitive cells build up your supercell.

 Routine SETGRP: Setting up the symmetry group for a
 trigonal (rhombohedral) supercell.

 Subroutine GETGRP returns: Found 12 space group operations
 (whereof 12 operations were pure point group operations)
 out of a pool of 12 trial point group operations.

The magnetic configuration has the point symmetry D_3d.

 Subroutine INISYM returns: Found 12 space group operations
 (whereof 12 operations are pure point group operations),
 and found     2 'primitive' translations

 KPOINTS: k-points

Automatic generation of k-mesh.
Space group operators:
 irot       det(A)        alpha          n_x          n_y          n_z        tau_x        tau_y        tau_z
    1     1.000000     0.000000     1.000000     0.000000     0.000000     0.000000     0.000000     0.000000
    2    -1.000000     0.000000     1.000000     0.000000     0.000000     0.000000     0.000000     0.000000
    3     1.000000   180.000000     0.000000     0.707107    -0.707107     0.000000     0.000000     0.000000
    4    -1.000000   180.000000     0.000000     0.707107    -0.707107     0.000000     0.000000     0.000000
    5     1.000000   120.000000    -0.577350    -0.577350    -0.577350     0.000000     0.000000     0.000000
    6    -1.000000   120.000000    -0.577350    -0.577350    -0.577350     0.000000     0.000000     0.000000
    7     1.000000   180.000000     0.707107    -0.707107     0.000000     0.000000     0.000000     0.000000
    8    -1.000000   180.000000     0.707107    -0.707107     0.000000     0.000000     0.000000     0.000000
    9     1.000000   120.000000     0.577350     0.577350     0.577350     0.000000     0.000000     0.000000
   10    -1.000000   120.000000     0.577350     0.577350     0.577350     0.000000     0.000000     0.000000
   11     1.000000   180.000000     0.707107     0.000000    -0.707107     0.000000     0.000000     0.000000
   12    -1.000000   180.000000     0.707107     0.000000    -0.707107     0.000000     0.000000     0.000000

 Subroutine IBZKPT returns following result:

 Found     13 irreducible k-points:

 Following reciprocal coordinates:
            Coordinates               Weight
  0.000000  0.000000  0.000000      1.000000
  0.250000 -0.000000 -0.000000      6.000000
  0.500000 -0.000000 -0.000000      3.000000
  0.250000  0.250000  0.000000      6.000000
  0.500000  0.250000  0.000000     12.000000
 -0.250000  0.250000  0.000000      6.000000
  0.500000  0.500000  0.000000      3.000000
  0.250000  0.250000  0.250000      2.000000
  0.500000  0.250000  0.250000      6.000000
 -0.250000  0.250000  0.250000      6.000000
  0.500000  0.500000  0.250000      6.000000
 -0.250000  0.500000  0.250000      6.000000
  0.500000  0.500000  0.500000      1.000000

 Following cartesian coordinates:
            Coordinates               Weight
  0.000000  0.000000  0.000000      1.000000
  0.375000 -0.125000 -0.125000      6.000000
  0.750000 -0.250000 -0.250000      3.000000
  0.250000  0.250000 -0.250000      6.000000
  0.625000  0.125000 -0.375000     12.000000
 -0.500000  0.500000  0.000000      6.000000
  0.500000  0.500000 -0.500000      3.000000
  0.125000  0.125000  0.125000      2.000000
  0.500000 -0.000000  0.000000      6.000000
 -0.625000  0.375000  0.375000      6.000000
  0.375000  0.375000 -0.125000      6.000000
 -0.750000  0.750000  0.250000      6.000000
  0.250000  0.250000  0.250000      1.000000

 TETIRR: Found     30 inequivalent tetrahedra from      384

 SYSTEM =  "NiO"
 POSCAR =  NiO

 Startparameter for this run:
   NWRITE =      2    write-flag & timer
   PREC   = normal    normal or accurate (medium, high low for compatibility)
   ISTART =      0    job   : 0-new  1-cont  2-samecut
   ICHARG =      2    charge: 1-file 2-atom 10-const
   ISPIN  =      2    spin polarized calculation?
   LNONCOLLINEAR =      F non collinear calculations
   LSORBIT =      F    spin-orbit coupling
   INIWAV =      1    electr: 0-lowe 1-rand  2-diag
   LASPH  =      F    aspherical Exc in radial PAW
   METAGGA=      F    non-selfconsistent MetaGGA calc.

 Electronic Relaxation 1
   ENCUT  =  450.0 eV  33.07 Ry    5.75 a.u.   8.83  8.83  8.83*2*pi/ulx,y,z
   ENINI  =  450.0     initial cutoff
   ENAUG  =  703.4 eV  augmentation charge cutoff
   NELM   =     60;   NELMIN=  6; NELMDL= -5     # of ELM steps
   EDIFF  = 0.1E-04   stopping-criterion for ELM
   LREAL  =      F    real-space projection
   NLSPLINE    = F    spline interpolate recip. space projectors
   LCOMPAT=      F    compatible to vasp.4.4
   GGA_COMPAT  = T    GGA compatible to vasp.4.4-vasp.4.6
   LMAXPAW     = -100 max onsite density
   LMAXMIX     =    2 max onsite mixed and CHGCAR
   VOSKOWN=      0    Vosko Wilk Nusair interpolation
   ROPT   =    0.00000   0.00000
 Ionic relaxation
   EDIFFG = 0.1E-03   stopping-criterion for IOM
   NSW    =      0    number of steps for IOM
   NBLOCK =      1;   KBLOCK =      1    inner block; outer block
   IBRION =     -1    ionic relax: 0-MD 1-quasi-New 2-CG
   NFREE  =      0    steps in history (QN), initial steepest desc. (CG)
   ISIF   =      2    stress and relaxation
   IWAVPR =     10    prediction:  0-non 1-charg 2-wave 3-comb
   ISYM   =      2    0-nonsym 1-usesym 2-fastsym
   LCORR  =      T    Harris-Foulkes like correction to forces

   POTIM  = 0.5000    time-step for ionic-motion
   TEIN   =    0.0    initial temperature
   TEBEG  =    0.0;   TEEND  =   0.0 temperature during run
   SMASS  =  -3.00    Nose mass-parameter (am)
   estimated Nose-frequenzy (Omega)   =  0.10E-29 period in steps =****** mass=  -0.596E-27a.u.
   SCALEE = 1.0000    scale energy and forces
   NPACO  =    256;   APACO  = 16.0  distance and # of slots for P.C.
   PSTRESS=    0.0 pullay stress

  Mass of Ions in am
   POMASS =  58.69 16.00
  Ionic Valenz
   ZVAL   =  16.00  6.00
  Atomic Wigner-Seitz radii
  virtual crystal weights
   VCA    =   1.00  1.00
   NELECT =      44.0000    total number of electrons
   NUPDOWN=      -1.0000    fix difference up-down

 DOS related values:
   EMIN   =  10.00;   EMAX   =-10.00  energy-range for DOS
   EFERMI =   0.00
   ISMEAR =    -5;   SIGMA  =   0.20  broadening in eV -4-tet -1-fermi 0-gaus

 Electronic relaxation 2 (details)
   IALGO  =     38    algorithm
   LDIAG  =      T    sub-space diagonalisation (order eigenvalues)
   LSUBROT=      F    optimize rotation matrix (better conditioning)
   TURBO    =      0    0=normal 1=particle mesh
   IRESTART =      0    0=no restart 2=restart with 2 vectors
   NREBOOT  =      0    no. of reboots
   NMIN     =      0    reboot dimension
   EREF     =   0.00    reference energy to select bands
   IMIX   =      4    mixing-type and parameters
     AMIX     =   0.20;   BMIX     =  0.00
     AMIX_MAG =   0.80;   BMIX_MAG =  0.00
     AMIN     =   0.10
     WC   =   100.;   INIMIX=   1;  MIXPRE=   1;  MAXMIX= -45

 Intra band minimization:
   WEIMIN = 0.0000     energy-eigenvalue tresh-hold
   EBREAK =  0.96E-07  absolut break condition
   DEPER  =   0.30     relativ break condition

   TIME   =   0.40     timestep for ELM

  volume/ion in A,a.u.               =       9.06        61.17
  Fermi-wavevector in a.u.,A,eV,Ry     =   1.746223  3.299883 41.488167  3.049294
  Thomas-Fermi vector in A             =   2.817758

 Write flags
   LWAVE        =      T    write WAVECAR
   LDOWNSAMPLE  =      F    k-point downsampling of WAVECAR
   LCHARG       =      T    write CHGCAR
   LVTOT        =      F    write LOCPOT, total local potential
   LVHAR        =      F    write LOCPOT, Hartree potential only
   LELF         =      F    write electronic localiz. function (ELF)
   LORBIT       =     11    0 simple, 1 ext, 2 COOP (PROOUT), +10 PAW based schemes

 Dipole corrections
   LMONO  =      F    monopole corrections only (constant potential shift)
   LDIPOL =      F    correct potential (dipole corrections)
   IDIPOL =      0    1-x, 2-y, 3-z, 4-all directions
   EPSILON=  1.0000000 bulk dielectric constant

 Exchange correlation treatment:
   GGA     =    --    GGA type
   VOSKOWN=      0    Vosko Wilk Nusair interpolation
   LHFCALC =     F    Hartree Fock is set to
   LHFONE  =     F    Hartree Fock one center treatment
   AEXX    =    0.0000 exact exchange contribution

 Linear response parameters
   LEPSILON=     F    determine dielectric tensor
   LRPA    =     F    only Hartree local field effects (RPA)
   LNABLA  =     F    use nabla operator in PAW spheres
   LVEL    =     F    velocity operator in full k-point grid
   LINTERFAST=   F  fast interpolation
   KINTER  =     0    interpolate to denser k-point grid
   CSHIFT  =0.1000    complex shift for real part using Kramers Kronig
   OMEGAMAX=  -1.0    maximum frequency
   DEG_THRESHOLD= 0.2000000E-02 threshold for treating states as degnerate
   RTIME   =   -0.100 relaxation time in fs
  (WPLASMAI=    0.000 imaginary part of plasma frequency in eV, 0.658/RTIME)
   DFIELD  = 0.0000000 0.0000000 0.0000000 field for delta impulse in time

 Orbital magnetization related:
   ORBITALMAG=     F  switch on orbital magnetization
   LCHIMAG   =     F  perturbation theory with respect to B field
   DQ        =  0.001000  dq finite difference perturbation B field
   LLRAUG    =     F  two centre corrections for induced B field

 Static calculation
 charge density and potential will be updated during run
 spin polarized calculation
 Variant of blocked Davidson
 Davidson routine will perform the subspace rotation
 perform sub-space diagonalisation
    after iterative eigenvector-optimisation
 modified Broyden-mixing scheme, WC =      100.0
 initial mixing is a Kerker type mixing with AMIX =  0.2000 and BMIX =      0.0000
 Hartree-type preconditioning will be used
 using additional bands            4
 reciprocal scheme for non local part
 use partial core corrections
 calculate Harris-corrections to forces
   (improved forces if not selfconsistent)
 use gradient corrections
 use of overlap-Matrix (Vanderbilt PP)
 Fermi weights with tetrahedron method with Bloechl corrections

  energy-cutoff  :      450.00
  volume of cell :       36.26
      direct lattice vectors                 reciprocal lattice vectors
     4.170000000  2.085000000  2.085000000     0.359712230 -0.119904077 -0.119904077
     2.085000000  4.170000000  2.085000000    -0.119904077  0.359712230 -0.119904077
     2.085000000  2.085000000  4.170000000    -0.119904077 -0.119904077  0.359712230

  length of vectors
     5.107186114  5.107186114  5.107186114     0.397676833  0.397676833  0.397676833

 k-points in units of 2pi/SCALE and weight: k-points
   0.00000000  0.00000000  0.00000000       0.016
   0.37500000 -0.12500000 -0.12500000       0.094
   0.75000000 -0.25000000 -0.25000000       0.047
   0.25000000  0.25000000 -0.25000000       0.094
   0.62500000  0.12500000 -0.37500000       0.188
  -0.50000000  0.50000000  0.00000000       0.094
   0.50000000  0.50000000 -0.50000000       0.047
   0.12500000  0.12500000  0.12500000       0.031
   0.50000000 -0.00000000  0.00000000       0.094
  -0.62500000  0.37500000  0.37500000       0.094
   0.37500000  0.37500000 -0.12500000       0.094
  -0.75000000  0.75000000  0.25000000       0.094
   0.25000000  0.25000000  0.25000000       0.016

 k-points in reciprocal lattice and weights: k-points
   0.00000000  0.00000000  0.00000000       0.016
   0.25000000 -0.00000000 -0.00000000       0.094
   0.50000000 -0.00000000 -0.00000000       0.047
   0.25000000  0.25000000  0.00000000       0.094
   0.50000000  0.25000000  0.00000000       0.188
  -0.25000000  0.25000000  0.00000000       0.094
   0.50000000  0.50000000  0.00000000       0.047
   0.25000000  0.25000000  0.25000000       0.031
   0.50000000  0.25000000  0.25000000       0.094
  -0.25000000  0.25000000  0.25000000       0.094
   0.50000000  0.50000000  0.25000000       0.094
  -0.25000000  0.50000000  0.25000000       0.094
   0.50000000  0.50000000  0.50000000       0.016

 position of ions in fractional coordinates (direct lattice)
   0.00000000  0.00000000  0.00000000
   0.50000000  0.50000000  0.50000000
   0.25000000  0.25000000  0.25000000
   0.75000000  0.75000000  0.75000000

 position of ions in cartesian coordinates  (Angst):
   0.00000000  0.00000000  0.00000000
   4.17000000  4.17000000  4.17000000
   2.08500000  2.08500000  2.08500000
   6.25500000  6.25500000  6.25500000

 k-point  1 :   0.0000 0.0000 0.0000  plane waves:     803
 k-point  2 :   0.2500-0.0000-0.0000  plane waves:     778
 k-point  3 :   0.5000-0.0000-0.0000  plane waves:     790
 k-point  4 :   0.2500 0.2500 0.0000  plane waves:     781
 k-point  5 :   0.5000 0.2500 0.0000  plane waves:     788
 k-point  6 :  -0.2500 0.2500 0.0000  plane waves:     795
 k-point  7 :   0.5000 0.5000 0.0000  plane waves:     780
 k-point  8 :   0.2500 0.2500 0.2500  plane waves:     776
 k-point  9 :   0.5000 0.2500 0.2500  plane waves:     774
 k-point 10 :  -0.2500 0.2500 0.2500  plane waves:     786
 k-point 11 :   0.5000 0.5000 0.2500  plane waves:     786
 k-point 12 :  -0.2500 0.5000 0.2500  plane waves:     790
 k-point 13 :   0.5000 0.5000 0.5000  plane waves:     772

 maximum and minimum number of plane-waves per node :       803      772

 maximum number of plane-waves:       803
 maximum index in each direction:
   IXMAX=    9   IYMAX=    8   IZMAX=    8
   IXMIN=   -9   IYMIN=   -9   IZMIN=   -9

 serial   3D FFT for wavefunctions
 parallel 3D FFT for charge:
    minimum data exchange during FFTs selected (reduces bandwidth)

 Broyden mixing: mesh for mixing (old mesh)
   NGX = 17   NGY = 17   NGZ = 17
  (NGX  = 56   NGY  = 56   NGZ  = 56)
  gives a total of   4913 points

 initial charge density was supplied:
 charge density of overlapping atoms calculated
 number of electron      44.0000000 magnetization       0.0000000
 keeping initial charge density in first step

 Maximum index for augmentation-charges        12895 (set IRDMAX)

 First call to EWALD:  gamma=   0.536
 Maximum number of real-space cells 3x 3x 3
 Maximum number of reciprocal cells 4x 4x 4

--------------------------------------- Iteration      1(   1)  ---------------------------------------

 BZINTS: Fermi energy: 24.969487; 44.000000 electrons
         Band energy: -53.998961;  BLOECHL correction: -0.173174

 eigenvalue-minimisations  :  1584
 total energy-change (2. order) : 0.4985455E+03  (-0.2759234E+04)
 number of electron      44.0000000 magnetization       0.0000000
 augmentation part       44.0000000 magnetization       0.0000000

 Free energy of the ion-electron system (eV)
  alpha Z        PSCENC =       311.81991378
  Ewald energy   TEWEN  =     -5345.56183988
  -Hartree energ DENC   =     -2231.97249407
  -exchange      EXHF   =         0.00000000
  -V(xc)+E(xc)   XCENC  =       234.32277935
  PAW double counting   =      6520.12304331    -6802.92753666
  entropy T*S    EENTRO =         0.00000000
  eigenvalues    EBANDS =       -53.99896071
  atomic energy  EATOM  =      7866.74061565
  Solvation  Ediel_sol  =         0.00000000
  free energy    TOTEN  =       498.54552077 eV

  energy without entropy =      498.54552077  energy(sigma->0) =      498.54552077

[...]

 BZINTS: Fermi energy: 10.100109; 44.000000 electrons
         Band energy:-545.340175;  BLOECHL correction: -0.098775

 eigenvalue-minimisations  :  1400
 total energy-change (2. order) :-0.4913412E+03  (-0.4807428E+03)
 number of electron      44.0000000 magnetization       0.0000000
 augmentation part       44.0000000 magnetization       0.0000000

[...]

 Broyden mixing:
  rms(total) = 0.20944E+01    rms(broyden)= 0.20812E+01
  rms(prec ) = 0.35971E+01
  weight for this iteration     100.00

[...]

 eigenvalues of (default mixing * dielectric matrix)
  average eigenvalue GAMMA=   0.6801
  0.6801

[...]

 eigenvalue-minimisations  :  1636
 total energy-change (2. order) :-0.2258852E-04  (-0.1253629E-04)
 number of electron      44.0000074 magnetization       0.0000000
 augmentation part       20.2936753 magnetization       0.0000000

 Broyden mixing:
  rms(total) = 0.38930E-02    rms(broyden)= 0.38908E-02
  rms(prec ) = 0.59106E-02
  weight for this iteration     100.00

 eigenvalues of (default mixing * dielectric matrix)
  average eigenvalue GAMMA=   2.0367
  5.0728  4.2721  1.6788  1.2840  1.0409  1.0409  0.9521  0.9521

[...]

--------------------------------------- Iteration      1(  14)  ---------------------------------------

[...]

 eigenvalue-minimisations  :  1104
 total energy-change (2. order) : 0.6889132E-05  (-0.3338340E-05)
 number of electron      44.0000074 magnetization       0.0000000
 augmentation part       20.2936753 magnetization       0.0000000

 Free energy of the ion-electron system (eV)
  alpha Z        PSCENC =       311.81991378
  Ewald energy   TEWEN  =     -5345.56183988
  -Hartree energ DENC   =     -2180.54322331
  -exchange      EXHF   =         0.00000000
  -V(xc)+E(xc)   XCENC  =       233.62665584
  PAW double counting   =      7127.38591720    -7416.47019662
  entropy T*S    EENTRO =         0.00000000
  eigenvalues    EBANDS =      -620.20577569
  atomic energy  EATOM  =      7866.74061565
  Solvation  Ediel_sol  =         0.00000000
  free energy    TOTEN  =       -23.20793303 eV

  energy without entropy =      -23.20793303  energy(sigma->0) =      -23.20793303

 average (electrostatic) potential at core
  the test charge radii are     0.8614  0.7215
  (the norm of the test charge is              1.0000)
       1 -80.3569       2 -80.3569       3 -69.1637       4 -69.1637

 E-fermi :   6.6776     XC(G=0): -13.0262     alpha+bet :-13.0529

 spin component 1

 k-point     1 :       0.0000    0.0000    0.0000
  band No.  band energies     occupation
      1     -57.5773      1.00000
      2     -57.5457      1.00000
      3     -57.5457      1.00000
      4     -55.9030      1.00000
      5     -55.8823      1.00000
      6     -55.8823      1.00000
      7     -13.2410      1.00000
      8     -11.8281      1.00000
      9      -1.0828      1.00000
     10       1.5592      1.00000
     11       1.5592      1.00000
     12       4.1753      1.00000
     13       4.1753      1.00000
     14       4.1767      1.00000
     15       4.7264      1.00000
     16       4.7264      1.00000
     17       4.8217      1.00000
     18       5.0603      1.00000
     19       5.0603      1.00000
     20       6.0537      1.00000
     21       6.0537      1.00000
     22       6.3416      1.00000
     23       8.5225      0.00000
     24       8.5225      0.00000
     25       8.7354      0.00000
     26      12.7122      0.00000

[...]

 spin component 2

[...]

 k-point    13 :       0.5000    0.5000    0.5000
  band No.  band energies     occupation
      1     -57.5772      1.00000
      2     -57.5457      1.00000
      3     -57.5457      1.00000
      4     -55.9031      1.00000
      5     -55.8822      1.00000
      6     -55.8822      1.00000
      7     -12.6000      1.00000
      8     -12.5941      1.00000
      9       0.9873      1.00000
     10       1.0257      1.00000
     11       2.0971      1.00000
     12       2.0971      1.00000
     13       2.7592      1.00000
     14       2.7592      1.00000
     15       4.8441      1.00000
     16       4.8441      1.00000
     17       5.2242      1.00000
     18       5.8786      1.00000
     19       5.8786      1.00000
     20       6.0156      1.00000
     21       6.5065      1.00000
     22       6.5065      1.00000
     23       7.9377      0.00000
     24       7.9377      0.00000
     25      11.3967      0.00000
     26      11.5321      0.00000

 soft charge-density along one line, spin component           1
         0         1         2         3         4         5         6         7         8         9
 total charge-density along one line

 soft charge-density along one line, spin component           2
         0         1         2         3         4         5         6         7         8         9
 total charge-density along one line

------------------------ aborting loop because EDIFF is reached ----------------------------------------

 total charge

# of ion       s       p       d       tot
    1        0.204   6.173   7.939  14.316
    2        0.204   6.173   7.939  14.316
    3        1.572   3.415   0.000   4.986
    4        1.572   3.415   0.000   4.986
tot          3.551  19.176  15.877  38.604

 magnetization (x)

[...]

  FORCE on cell =-STRESS in cart. coord.  units (eV):
  Direction    XX          YY          ZZ          XY          YZ          ZX
  Alpha Z   311.81991   311.81991   311.81991
  Ewald   -1781.85627 -1781.85627 -1781.85627     0.00000     0.00000     0.00000
  Hartree   726.83099   726.83099   726.83099    -0.08711    -0.08711    -0.08711
  E(xc)    -297.44917  -297.44917  -297.44917    -0.00039    -0.00039    -0.00039
  Local     191.17983   191.17983   191.17983     0.21942     0.21942     0.21942
  n-local  -227.72307  -229.81146  -228.31350    -0.00049     0.19219    -0.12015
  augment   369.48168   369.48168   369.48168    -0.10459    -0.10459    -0.10459
  Kinetic   706.17794   711.95205   708.56181    -0.30207     0.10323    -0.25501
  Fock        0.00000     0.00000     0.00000     0.00000     0.00000     0.00000
  Total       0.28823     0.28823     0.28823    -0.10807    -0.10807    -0.10807
  in kB      12.73702    12.73702    12.73702    -4.77564    -4.77564    -4.77564

 VOLUME and BASIS-vectors are now :
  energy-cutoff  :      450.00
  volume of cell :       36.26
      direct lattice vectors                 reciprocal lattice vectors
     4.170000000  2.085000000  2.085000000     0.359712230 -0.119904077 -0.119904077
     2.085000000  4.170000000  2.085000000    -0.119904077  0.359712230 -0.119904077
     2.085000000  2.085000000  4.170000000    -0.119904077 -0.119904077  0.359712230

  length of vectors
     5.107186114  5.107186114  5.107186114     0.397676833  0.397676833  0.397676833

 FORCES acting on ions
    electron-ion (+dipol)            ewald-force                    non-local-force                 convergence-correction
   -.213E-12 -.173E-12 -.191E-12   -.227E-12 -.853E-13 -.114E-12   0.529E-22 0.106E-21 0.529E-22   -.293E-13 -.142E-12 -.120E-12
   0.458E-11 0.717E-11 0.716E-11   -.284E-13 0.853E-13 0.568E-13   -.529E-22 0.000E+00 0.000E+00   -.980E-13 -.115E-12 -.176E-12
   -.121E-11 0.101E-11 0.102E-11   0.996E-13 -.131E-13 0.169E-13   0.331E-22 0.596E-22 0.397E-22   -.860E-13 -.695E-13 -.654E-13
   0.431E-11 -.280E-11 -.280E-11   0.127E-12 0.134E-13 0.426E-13   -.132E-22 0.662E-23 0.397E-22   0.737E-13 0.112E-12 0.923E-13
   0.747E-11 0.521E-11 0.519E-11   -.293E-13 0.280E-15 0.262E-14   0.199E-22 0.172E-21 0.132E-21   -.140E-12 -.214E-12 -.269E-12

 POSITION                                       TOTAL-FORCE (eV/Angst)
      0.00000      0.00000      0.00000         0.000000      0.000000     -0.000000
      4.17000      4.17000      4.17000        -0.000000     -0.000000      0.000000
      2.08500      2.08500      2.08500        -0.000000     -0.000000      0.000000
      6.25500      6.25500      6.25500         0.000000      0.000000     -0.000000
    total drift:                                0.000000      0.000000      0.000000

  FREE ENERGIE OF THE ION-ELECTRON SYSTEM (eV)
  free  energy   TOTEN  =       -23.20793303 eV

  energy  without entropy=      -23.20793303  energy(sigma->0) =      -23.20793303

 writing wavefunctions

 total charge

[...]

 magnetization (x)

# of ion       s       p       d       tot
    1       -0.006  -0.007   1.351   1.339
    2        0.006   0.007  -1.351  -1.339
    3        0.000   0.000   0.000   0.000
    4       -0.000   0.000   0.000   0.000
tot         -0.000   0.000  -0.000   0.000

 BZINTS: Fermi energy:  6.677593; 44.000000 electrons
         Band energy:-620.205776;  BLOECHL correction:  0.000000