 vasp.5.3.5 31Mar14 (build Aug 31 2014 21:42:44) complex

 executed on             LinuxIFC date 2020.11.01  17:16:02

 INCAR:
 POTCAR:   PAW_PBE C 08Apr2002

 POTCAR:   PAW_PBE C 08Apr2002
   VRHFIN =C: s2p2

   TITEL  = PAW_PBE C 08Apr2002
   POMASS =   12.011; ZVAL   =    4.000    mass and valenz
   ENMAX  =  400.000; ENMIN  =  300.000 eV
   QCUT   =   -5.516; QGAM   =   11.032    optimization parameters

   Description
     l     E      TYP  RCUT    TYP  RCUT
     0   .000     23  1.200
     0   .000     23  1.200
     1   .000     23  1.500
     1  2.500     23  1.500
     2   .000      7  1.500

 PAW_PBE C 08Apr2002                    :

 POSCAR: c
  positions in direct lattice
 exchange correlation table for  LEXCH =        8
   RHO(1)=    0.500       N(1)  =     2000
   RHO(2)=  100.500       N(2)  =     4000

 ion  position               nearest neighbor table
   1  0.000  0.000  0.250-   2 1.42   2 1.42   2 1.42
   2  0.333  0.667  0.250-   1 1.42   1 1.42   1 1.42

  LATTYP: Found a hexagonal cell.
 ALAT       =     2.4560000000
 C/A-ratio  =     8.1433224756

  Lattice vectors:

 A1 = (   1.2280000000,  -2.1269583900,   0.0000000000)
 A2 = (   1.2280000000,   2.1269583900,   0.0000000000)
 A3 = (   0.0000000000,   0.0000000000,  20.0000000000)

Analysis of symmetry for initial positions (statically):
 Subroutine PRICEL returns:
 Original cell was already a primitive cell.

 Routine SETGRP: Setting up the symmetry group for a
 hexagonal supercell.

 Subroutine GETGRP returns: Found 24 space group operations
 (whereof  6 operations were pure point group operations)
 out of a pool of 24 trial point group operations.

The static configuration has the point symmetry C_3v.
 The point group associated with its full space group is D_6h.

Analysis of symmetry for dynamics (positions and initial velocities):
 Subroutine PRICEL returns:
 Original cell was already a primitive cell.

 Routine SETGRP: Setting up the symmetry group for a
 hexagonal supercell.

 Subroutine GETGRP returns: Found 24 space group operations
 (whereof  6 operations were pure point group operations)
 out of a pool of 24 trial point group operations.

The dynamic configuration has the point symmetry C_3v.
 The point group associated with its full space group is D_6h.

 KPOINTS: 10*10*10

Automatic generation of k-mesh.
Space group operators:
 irot       det(A)        alpha          n_x          n_y          n_z        tau_x        tau_y        tau_z
    1     1.000000     0.000000     1.000000     0.000000     0.000000     0.000000     0.000000     0.000000
    2     1.000000   120.000000     0.000000     0.000000    -1.000000     0.000000     0.000000     0.000000
    3     1.000000   120.000000     0.000000     0.000000     1.000000     0.000000     0.000000     0.000000
    4    -1.000000   180.000000     0.500000    -0.866025     0.000000     0.000000     0.000000     0.000000
    5    -1.000000   180.000000    -0.500000    -0.866025     0.000000     0.000000     0.000000     0.000000
    6    -1.000000   180.000000     1.000000     0.000000     0.000000     0.000000     0.000000     0.000000
    7    -1.000000     0.000000     1.000000     0.000000     0.000000     0.333333     0.666667     0.500000
    8     1.000000    60.000000     0.000000     0.000000    -1.000000     0.333333     0.666667     0.000000
    9    -1.000000    60.000000     0.000000     0.000000    -1.000000     0.000000     0.000000     0.500000
   10    -1.000000   120.000000     0.000000     0.000000    -1.000000     0.333333     0.666667     0.500000
   11     1.000000   180.000000     0.000000     0.000000     1.000000     0.333333     0.666667     0.000000
   12    -1.000000   180.000000     0.000000     0.000000     1.000000     0.000000     0.000000     0.500000
   13    -1.000000   120.000000     0.000000     0.000000     1.000000     0.333333     0.666667     0.500000
   14     1.000000    60.000000     0.000000     0.000000     1.000000     0.333333     0.666667     0.000000
   15    -1.000000    60.000000     0.000000     0.000000     1.000000     0.000000     0.000000     0.500000
   16     1.000000   180.000000     0.500000    -0.866025     0.000000     0.333333     0.666667     0.500000
   17     1.000000   180.000000     0.000000     1.000000     0.000000     0.000000     0.000000     0.500000
   18    -1.000000   180.000000     0.000000     1.000000     0.000000     0.333333     0.666667     0.000000
   19     1.000000   180.000000    -0.500000    -0.866025     0.000000     0.333333     0.666667     0.500000
   20     1.000000   180.000000     0.866025     0.500000     0.000000     0.000000     0.000000     0.500000
   21    -1.000000   180.000000     0.866025     0.500000     0.000000     0.333333     0.666667     0.000000
   22     1.000000   180.000000     1.000000     0.000000     0.000000     0.333333     0.666667     0.500000
   23     1.000000   180.000000     0.866025    -0.500000     0.000000     0.000000     0.000000     0.500000
   24    -1.000000   180.000000     0.866025    -0.500000     0.000000     0.333333     0.666667     0.000000

 Subroutine IBZKPT returns following result:

 Found    133 irreducible k-points:

 Following reciprocal coordinates:
            Coordinates               Weight
  0.000000  0.000000  0.000000      1.000000
  0.083333  0.000000  0.000000      6.000000
  0.166667  0.000000  0.000000      6.000000
  0.250000  0.000000  0.000000      6.000000
  0.333333  0.000000  0.000000      6.000000
  0.416667  0.000000  0.000000      6.000000
  0.500000  0.000000  0.000000      3.000000
  0.083333  0.083333  0.000000      6.000000
  0.166667  0.083333  0.000000     12.000000
  0.250000  0.083333  0.000000     12.000000
  0.333333  0.083333  0.000000     12.000000
  0.416667  0.083333  0.000000     12.000000
  0.166667  0.166667  0.000000      6.000000
  0.250000  0.166667  0.000000     12.000000
  0.333333  0.166667  0.000000     12.000000
  0.416667  0.166667  0.000000      6.000000
  0.250000  0.250000  0.000000      6.000000
  0.333333  0.250000  0.000000     12.000000
  0.333333  0.333333  0.000000      2.000000
  0.000000  0.000000  0.083333      2.000000
  0.083333  0.000000  0.083333     12.000000
  0.166667  0.000000  0.083333     12.000000
  0.250000  0.000000  0.083333     12.000000
  0.333333  0.000000  0.083333     12.000000
  0.416667  0.000000  0.083333     12.000000
  0.500000  0.000000  0.083333      6.000000
  0.083333  0.083333  0.083333     12.000000
  0.166667  0.083333  0.083333     24.000000
  0.250000  0.083333  0.083333     24.000000
  0.333333  0.083333  0.083333     24.000000
  0.416667  0.083333  0.083333     24.000000
  0.166667  0.166667  0.083333     12.000000
  0.250000  0.166667  0.083333     24.000000
  0.333333  0.166667  0.083333     24.000000
  0.416667  0.166667  0.083333     12.000000
  0.250000  0.250000  0.083333     12.000000
  0.333333  0.250000  0.083333     24.000000
  0.333333  0.333333  0.083333      4.000000
  0.000000  0.000000  0.166667      2.000000
  0.083333  0.000000  0.166667     12.000000
  0.166667  0.000000  0.166667     12.000000
  0.250000  0.000000  0.166667     12.000000
  0.333333  0.000000  0.166667     12.000000
  0.416667  0.000000  0.166667     12.000000
  0.500000  0.000000  0.166667      6.000000
  0.083333  0.083333  0.166667     12.000000
  0.166667  0.083333  0.166667     24.000000
  0.250000  0.083333  0.166667     24.000000
  0.333333  0.083333  0.166667     24.000000
  0.416667  0.083333  0.166667     24.000000
  0.166667  0.166667  0.166667     12.000000
  0.250000  0.166667  0.166667     24.000000
  0.333333  0.166667  0.166667     24.000000
  0.416667  0.166667  0.166667     12.000000
  0.250000  0.250000  0.166667     12.000000
  0.333333  0.250000  0.166667     24.000000
  0.333333  0.333333  0.166667      4.000000
  0.000000  0.000000  0.250000      2.000000
  0.083333  0.000000  0.250000     12.000000
  0.166667  0.000000  0.250000     12.000000
[...]
  0.333333  0.000000  0.500000      6.000000
  0.416667  0.000000  0.500000      6.000000
  0.500000  0.000000  0.500000      3.000000
  0.083333  0.083333  0.500000      6.000000
  0.166667  0.083333  0.500000     12.000000
  0.250000  0.083333  0.500000     12.000000
  0.333333  0.083333  0.500000     12.000000
  0.416667  0.083333  0.500000     12.000000
  0.166667  0.166667  0.500000      6.000000
  0.250000  0.166667  0.500000     12.000000
  0.333333  0.166667  0.500000     12.000000
  0.416667  0.166667  0.500000      6.000000
  0.250000  0.250000  0.500000      6.000000
  0.333333  0.250000  0.500000     12.000000
  0.333333  0.333333  0.500000      2.000000

 Following cartesian coordinates:
            Coordinates               Weight
  0.000000  0.000000  0.000000      1.000000
  0.033931 -0.019590  0.000000      6.000000
  0.067861 -0.039180  0.000000      6.000000
  0.101792 -0.058769  0.000000      6.000000
  0.135722 -0.078359  0.000000      6.000000
  0.169653 -0.097949  0.000000      6.000000
  0.203583 -0.117539  0.000000      3.000000
  0.067861  0.000000  0.000000      6.000000
  0.101792 -0.019590  0.000000     12.000000
  0.135722 -0.039180  0.000000     12.000000
  0.169653 -0.058769  0.000000     12.000000
  0.203583 -0.078359  0.000000     12.000000
  0.135722  0.000000  0.000000      6.000000
  0.169653 -0.019590  0.000000     12.000000
  0.203583 -0.039180  0.000000     12.000000
  0.237514 -0.058769  0.000000      6.000000
  0.203583  0.000000  0.000000      6.000000
  0.237514 -0.019590  0.000000     12.000000
  0.271444  0.000000  0.000000      2.000000
  0.000000  0.000000  0.004167      2.000000
  0.033931 -0.019590  0.004167     12.000000
  0.067861 -0.039180  0.004167     12.000000
  0.101792 -0.058769  0.004167     12.000000
  0.135722 -0.078359  0.004167     12.000000
  0.169653 -0.097949  0.004167     12.000000
  0.203583 -0.117539  0.004167      6.000000
  0.067861  0.000000  0.004167     12.000000
  0.101792 -0.019590  0.004167     24.000000
  0.135722 -0.039180  0.004167     24.000000
  0.169653 -0.058769  0.004167     24.000000
  0.203583 -0.078359  0.004167     24.000000
  0.135722  0.000000  0.004167     12.000000
  0.169653 -0.019590  0.004167     24.000000
  0.203583 -0.039180  0.004167     24.000000
  0.237514 -0.058769  0.004167     12.000000
  0.203583  0.000000  0.004167     12.000000
  0.237514 -0.019590  0.004167     24.000000
  0.271444  0.000000  0.004167      4.000000
  0.000000  0.000000  0.008333      2.000000
  0.033931 -0.019590  0.008333     12.000000
  0.067861 -0.039180  0.008333     12.000000
  0.101792 -0.058769  0.008333     12.000000
  0.135722 -0.078359  0.008333     12.000000
  0.169653 -0.097949  0.008333     12.000000
  0.203583 -0.117539  0.008333      6.000000
  0.067861  0.000000  0.008333     12.000000
  0.101792 -0.019590  0.008333     24.000000
  0.135722 -0.039180  0.008333     24.000000
  0.169653 -0.058769  0.008333     24.000000
  0.203583 -0.078359  0.008333     24.000000
  0.135722  0.000000  0.008333     12.000000
  0.169653 -0.019590  0.008333     24.000000
  0.203583 -0.039180  0.008333     24.000000
  0.237514 -0.058769  0.008333     12.000000
[...]
 k-point ** :   0.3333 0.3333 0.4167  plane waves:    1194
 k-point ** :   0.0000 0.0000 0.5000  plane waves:    1232
 k-point ** :   0.0833 0.0000 0.5000  plane waves:    1260
 k-point ** :   0.1667 0.0000 0.5000  plane waves:    1264
 k-point ** :   0.2500 0.0000 0.5000  plane waves:    1256
 k-point ** :   0.3333 0.0000 0.5000  plane waves:    1250
 k-point ** :   0.4167 0.0000 0.5000  plane waves:    1224
 k-point ** :   0.5000 0.0000 0.5000  plane waves:    1204
 k-point ** :   0.0833 0.0833 0.5000  plane waves:    1260
 k-point ** :   0.1667 0.0833 0.5000  plane waves:    1254
 k-point ** :   0.2500 0.0833 0.5000  plane waves:    1248
 k-point ** :   0.3333 0.0833 0.5000  plane waves:    1232
 k-point ** :   0.4167 0.0833 0.5000  plane waves:    1210
 k-point ** :   0.1667 0.1667 0.5000  plane waves:    1240
 k-point ** :   0.2500 0.1667 0.5000  plane waves:    1220
 k-point ** :   0.3333 0.1667 0.5000  plane waves:    1214
 k-point ** :   0.4167 0.1667 0.5000  plane waves:    1224
 k-point ** :   0.2500 0.2500 0.5000  plane waves:    1210
 k-point ** :   0.3333 0.2500 0.5000  plane waves:    1212
 k-point ** :   0.3333 0.3333 0.5000  plane waves:    1188

 maximum and minimum number of plane-waves per node :      1266     1188

 maximum number of plane-waves:      1266
 maximum index in each direction:
   IXMAX=    3   IYMAX=    3   IZMAX=   28
   IXMIN=   -3   IYMIN=   -3   IZMIN=  -28

 WARNING: aliasing errors must be expected set NGX to  14 to avoid them
 WARNING: aliasing errors must be expected set NGY to  14 to avoid them
 WARNING: aliasing errors must be expected set NGZ to 114 to avoid them
 aliasing errors are usually negligible using standard VASP settings
 and one can safely disregard these warnings

 serial   3D FFT for wavefunctions
 parallel 3D FFT for charge:
    minimum data exchange during FFTs selected (reduces bandwidth)

 Broyden mixing: mesh for mixing (old mesh)
   NGX =  7   NGY =  7   NGZ = 57
  (NGX  = 20   NGY  = 20   NGZ  =180)
  gives a total of   2793 points

 initial charge density was supplied:
 charge density of overlapping atoms calculated
 number of electron       8.0000000 magnetization
 keeping initial charge density in first step

 Maximum index for augmentation-charges          184 (set IRDMAX)

 First call to EWALD:  gamma=   0.376
 Maximum number of real-space cells 5x 5x 1
 Maximum number of reciprocal cells 2x 2x10

 FEWALD executed in parallel

----------------------------------------- Iteration    1(   1)  ---------------------------------------

 BZINTS: Fermi energy: -1.531314;  8.000000 electrons
         Band energy:-103.989943;  BLOECHL correction: -0.392776

 eigenvalue-minimisations  :  5024
 total energy-change (2. order) : 0.6298886E+01  (-0.3265378E+03)
 number of electron       8.0000000 magnetization
 augmentation part        8.0000000 magnetization

 Free energy of the ion-electron system (eV)
  alpha Z        PSCENC =         3.11956855
  Ewald energy   TEWEN  =      1307.53460830
  -Hartree energ DENC   =     -1519.47447228
  -exchange      EXHF   =         0.00000000
  -V(xc)+E(xc)   XCENC  =        27.61027636
  PAW double counting   =        75.66288619      -77.96384553
  entropy T*S    EENTRO =         0.00000000
  eigenvalues    EBANDS =      -103.98994314
  atomic energy  EATOM  =       293.79980732
  free energy    TOTEN  =         6.29888577 eV

  energy without entropy =        6.29888577  energy(sigma->0) =        6.29888577

[...]

 eigenvalue-minimisations  :  6656
 total energy-change (2. order) :-0.2573476E+02  (-0.2543723E+02)
 number of electron       8.0000000 magnetization
 augmentation part        8.0000000 magnetization

[...]

 Broyden mixing:
  rms(total) = 0.54507E+00    rms(broyden)= 0.54467E+00
  rms(prec ) = 0.59320E+00
  weight for this iteration     100.00

[...]

 eigenvalues of (default mixing * dielectric matrix)
  average eigenvalue GAMMA=   2.0844
  2.0844

[...]

 BZINTS: Fermi energy: -3.220682;  8.000000 electrons
         Band energy: -99.840156;  BLOECHL correction: -0.000034

[...]

 average (electrostatic) potential at core
  the test charge radii are     0.6991
  (the norm of the test charge is              1.0000)
       1 -58.3745       2 -58.3747

 E-fermi :  -2.6917     XC(G=0):  -2.2789     alpha+bet : -1.9218

 k-point     1 :       0.0000    0.0000    0.0000
  band No.  band energies     occupation
      1     -22.4150      2.00000
      2     -10.4354      2.00000
      3      -5.7697      2.00000
      4      -5.7668      2.00000
      5       0.5081      0.00000
      6       1.2652      0.00000
      7       1.4991      0.00000
      8       2.4520      0.00000
      9       2.9065      0.00000
     10       4.5862      0.00000
     11       5.2218      0.00000
     12       5.8494      0.00000
     13       5.8527      0.00000
     14       7.5615      0.00000
     15       8.3490      0.00000
     16       9.0778      0.00000

[...]

 soft charge-density along one line, spin component           1
         0         1         2         3         4         5         6         7         8         9
 total charge-density along one line

------------------------ aborting loop because EDIFF is reached ----------------------------------------

  FORCE on cell =-STRESS in cart. coord.  units (eV):
  Direction    XX          YY          ZZ          XY          YZ          ZX
  Alpha Z     3.11957     3.11957     3.11957
  Ewald    1577.50209  1577.50209 -1847.46962     0.00000     0.00000     0.00000
  Hartree  1542.66088  1542.66088 -1531.55163     0.00000     0.00000     0.00000
  E(xc)     -29.22586   -29.22588   -30.40428     0.00000     0.00000     0.00000
  Local   -3207.72193 -3207.73186  3273.83420     0.00000     0.00000     0.00000
  n-local    -7.41124    -6.48058    -6.30541    -0.00620     0.00015    -0.00015
  augment    -0.71889    -0.71895    -0.66186     0.00000     0.00000     0.00000
  Kinetic   123.85455   116.65089   137.21536     0.12050     0.00113     0.00015
  Fock        0.00000     0.00000     0.00000     0.00000     0.00000     0.00000
  Total      -1.08234    -1.08234    -2.22368     0.00000     0.00000     0.00000
  in kB     -16.59804   -16.59804   -34.10081     0.00000     0.00000     0.00000

 VOLUME and BASIS-vectors are now :
  energy-cutoff  :      300.00
  volume of cell :      104.48
      direct lattice vectors                 reciprocal lattice vectors
     1.228000000 -2.126958390  0.000000000     0.407166124 -0.235077471  0.000000000
     1.228000000  2.126958390  0.000000000     0.407166124  0.235077471  0.000000000
     0.000000000  0.000000000 20.000000000     0.000000000  0.000000000  0.050000000

[...]

 FORCES acting on ions
    electron-ion (+dipol)            ewald-force                    non-local-force                 convergence-correction
   -.774E-10 -.399E-03 0.444E-14   -.229E-15 0.273E-05 -.159E-21   0.694E-16 -.264E-15 -.593E-20   0.989E-15 -.250E-08 0.172E-13
   0.129E-09 -.696E-03 -.181E-12   -.389E-14 -.273E-05 0.159E-21   -.139E-16 0.153E-15 -.847E-21   -.101E-14 0.249E-08 0.172E-13
   0.521E-10 -.109E-02 -.177E-12   -.412E-14 -.324E-14 0.000E+00   0.555E-16 -.111E-15 -.678E-20   -.206E-16 -.146E-11 0.343E-13

 POSITION                                       TOTAL-FORCE (eV/Angst)
      0.00000      0.00000      5.00000         0.000000      0.000000      0.000000
      1.22800      0.70899      5.00000         0.000000      0.000000      0.000000
    total drift:                                0.000000     -0.001095      0.000000

  FREE ENERGIE OF THE ION-ELECTRON SYSTEM (eV)
  free  energy   TOTEN  =       -18.50944835 eV

  energy  without entropy=      -18.50944835  energy(sigma->0) =      -18.50944835

[...]

 d Force = 0.0000000E+00[ 0.000E+00, 0.000E+00]  d Energy = 0.4035397E-01-0.404E-01
 d Force = 0.0000000E+00[ 0.000E+00, 0.000E+00]  d Ewald  = 0.1857383E+02-0.186E+02

 Steepest descent step on ions:
 trial-energy change:   -0.040354  1 .order   -0.038402   -0.175788    0.098983
  (g-gl).g = 0.176E+00      g.g   = 0.176E+00  gl.gl    = 0.000E+00
 g(Force)  = 0.402E-40   g(Stress)= 0.176E+00 ortho     = 0.000E+00
 gamma     =   0.00000
 trial     =   1.00000
 opt step  =   0.64946  (harmonic =   0.63976) maximal distance =0.00000000
 next E    =   -18.567067   (d E  =  -0.05762)

[...]

 BZINTS: Fermi energy: -2.964919;  8.000000 electrons
         Band energy:-100.072240;  BLOECHL correction: -0.000028

[...]

 d Force = 0.0000000E+00[ 0.000E+00, 0.000E+00]  d Energy = 0.1735692E-01-0.174E-01
 d Force = 0.0000000E+00[ 0.000E+00, 0.000E+00]  d Ewald  =-0.6944316E+01 0.694E+01

[...]

 Conjugate gradient step on ions:
 trial-energy change:   -0.066371  1 .order   -0.065563   -0.074137   -0.056989
  (g-gl).g = 0.211E+00      g.g   = 0.210E+00  gl.gl    = 0.176E+00
 g(Force)  = 0.175E-41   g(Stress)= 0.210E+00 ortho     =-0.768E-03
 gamma     =   1.19960
 trial     =   0.35441
 opt step  =   1.00747  (harmonic =   1.53222) maximal distance =0.00000000
 next E    =   -18.691091   (d E  =  -0.12393)

[...]

 Conjugate gradient step on ions:
 trial-energy change:   -0.015687  1 .order   -0.015663   -0.066988    0.035662
  (g-gl).g = 0.187E+00      g.g   = 0.875E-01  gl.gl    = 0.210E+00
 g(Force)  = 0.277E-42   g(Stress)= 0.875E-01 ortho     = 0.250E-02
 gamma     =   0.88930
 trial     =   0.74624
 opt step  =   0.48699  (harmonic =   0.48699) maximal distance =0.00000000
 next E    =   -18.808711   (d E  =  -0.02186)

[...]

 Conjugate gradient step on ions:
 trial-energy change:   -0.002838  1 .order   -0.002932   -0.005161   -0.000703
  (g-gl).g = 0.232E-01      g.g   = 0.129E-01  gl.gl    = 0.955E-02
 g(Force)  = 0.450E-41   g(Stress)= 0.129E-01 ortho     = 0.492E-03
 gamma     =   2.43153
 trial     =   0.36720
 opt step  =   0.43522  (harmonic =   0.42508) maximal distance =0.00000000
 next E    =   -18.851634   (d E  =  -0.00290)

[...]

 Conjugate gradient step on ions:
 trial-energy change:   -0.000368  1 .order   -0.000373   -0.000382   -0.000363
  (g-gl).g = 0.456E-02      g.g   = 0.101E-02  gl.gl    = 0.129E-01
 g(Force)  = 0.117E-40   g(Stress)= 0.101E-02 ortho     =-0.356E-06
 gamma     =   0.35427
 trial     =   0.37873
 opt step  =   1.51490  (harmonic =   7.79074) maximal distance =0.00000000
 next E    =   -18.855541   (d E  =  -0.00393)

[...]

 d Force = 0.0000000E+00[ 0.000E+00, 0.000E+00]  d Energy = 0.3160029E-02-0.316E-02
 d Force = 0.0000000E+00[ 0.000E+00, 0.000E+00]  d Ewald  = 0.1377377E+03-0.138E+03

[...]

 E-fermi :   7.8904     XC(G=0): -12.2216     alpha+bet :-15.2711

[...]

 d Force = 0.0000000E+00[ 0.000E+00, 0.000E+00]  d Energy =-0.6949433E+00 0.695E+00
 d Force = 0.0000000E+00[ 0.000E+00, 0.000E+00]  d Ewald  = 0.2764492E+03-0.276E+03

 FEWALD executed in parallel

[...]

 BZINTS: Fermi energy:-22.312885;  8.000000 electrons
         Band energy:-299.017327;  BLOECHL correction: -0.002988

[...]

 BZINTS: Fermi energy:-15.961256;  8.000000 electrons
         Band energy:-229.834755;  BLOECHL correction: -0.000019

[...]

 eigenvalue-minimisations  :  5088
 total energy-change (2. order) :-0.1391267E-01  (-0.1255410E-01)
 number of electron       7.9999995 magnetization
 augmentation part        0.1910056 magnetization

[...]

 Broyden mixing:
  rms(total) = 0.20714E-04    rms(broyden)= 0.20676E-04
  rms(prec ) = 0.47365E-04
  weight for this iteration     100.00

 eigenvalues of (default mixing * dielectric matrix)
  average eigenvalue GAMMA=   1.8803
  3.8018  2.9004  2.9004  2.4385  2.0959  1.5687  1.1404  0.8787  1.0069  1.0069
  0.9450

[...]

----------------------------------------- Iteration   21(  13)  ---------------------------------------

 BZINTS: Fermi energy:  1.308295;  8.000000 electrons
         Band energy: -63.239485;  BLOECHL correction: -0.000131

 eigenvalue-minimisations  :  4304
 total energy-change (2. order) : 0.2498234E-07  (-0.3817769E-09)
 number of electron       7.9999995 magnetization
 augmentation part        0.1919050 magnetization

 Free energy of the ion-electron system (eV)
  alpha Z        PSCENC =        11.39592015
  Ewald energy   TEWEN  =       -29.57875518
  -Hartree energ DENC   =      -257.55940053
  -exchange      EXHF   =         0.00000000
  -V(xc)+E(xc)   XCENC  =        28.89647874
  PAW double counting   =       141.72623917     -144.29875478
  entropy T*S    EENTRO =         0.00000000
  eigenvalues    EBANDS =       -63.23948490
  atomic energy  EATOM  =       293.79980732
  free energy    TOTEN  =       -18.85795002 eV

  energy without entropy =      -18.85795002  energy(sigma->0) =      -18.85795002

 average (electrostatic) potential at core
  the test charge radii are     0.6991
  (the norm of the test charge is              1.0000)
       1 -54.1222       2 -54.1227

 E-fermi :   1.3083     XC(G=0):  -7.2582     alpha+bet : -7.0203

[...]

 k-point   133 :       0.3333    0.3333    0.5000
  band No.  band energies     occupation
      1     -11.3357      2.00000
      2     -11.3355      2.00000
      3      -9.3909      2.00000
      4       1.2956      2.00000
      5       1.2958      0.01109
      6      11.6456      0.00000
      7      15.2064      0.00000
      8      15.2070      0.00000
      9      16.1049      0.00000
     10      16.1931      0.00000
     11      16.1932      0.00000
     12      19.4650      0.00000
     13      20.1100      0.00000
     14      20.1103      0.00000
     15      22.6592      0.00000
     16      27.7080      0.00000

 soft charge-density along one line, spin component           1
         0         1         2         3         4         5         6         7         8         9
 total charge-density along one line

------------------------ aborting loop because EDIFF is reached ----------------------------------------

  FORCE on cell =-STRESS in cart. coord.  units (eV):
  Direction    XX          YY          ZZ          XY          YZ          ZX
  Alpha Z    11.39592    11.39592    11.39592
  Ewald     241.22437   241.22437  -512.02772     0.00000     0.00000     0.00000
  Hartree   246.42102   246.42103  -235.28374     0.00000     0.00000     0.00000
  E(xc)     -29.30331   -29.30333   -30.47754     0.00000     0.00000     0.00000
  Local    -582.28264  -582.29269   635.45962     0.00000     0.00000     0.00000
  n-local    -7.74239    -6.76930    -6.37882     0.00808    -0.00128     0.00655
  augment    -0.78072    -0.78083    -0.71179     0.00000     0.00000     0.00000
  Kinetic   124.61095   117.34896   138.00772     0.07487     0.02935    -0.13147
  Fock        0.00000     0.00000     0.00000     0.00000     0.00000     0.00000
  Total       0.39366     0.39366    -0.01635     0.00000     0.00000     0.00000
  in kB      22.05310    22.05310    -0.91603     0.00000     0.00000     0.00000

 VOLUME and BASIS-vectors are now :
  energy-cutoff  :      300.00
  volume of cell :       28.60
      direct lattice vectors                 reciprocal lattice vectors
     1.224208741 -2.120391738  0.000000000     0.408427079 -0.235805484  0.000000000
     1.224208741  2.120391738  0.000000000     0.408427079  0.235805484  0.000000000
     0.000000000  0.000000000  5.508849570     0.000000000  0.000000000  0.181526104

  length of vectors
     2.448417481  2.448417481  5.508849570     0.471610968  0.471610968  0.181526104

 FORCES acting on ions
    electron-ion (+dipol)            ewald-force                    non-local-force                 convergence-correction
   -.556E-10 -.368E-03 -.460E-14   0.111E-13 0.274E-05 -.232E-17   -.164E-23 0.125E-15 -.271E-19   -.249E-14 -.210E-07 0.358E-13
   0.138E-09 -.710E-03 -.364E-13   -.126E-13 -.274E-05 0.238E-17   0.164E-23 0.139E-16 -.271E-19   0.402E-14 0.210E-07 0.370E-13
   0.825E-10 -.108E-02 -.410E-13   -.148E-14 0.101E-14 0.546E-19   0.439E-27 0.139E-15 -.542E-19   0.153E-14 0.147E-10 0.728E-13

 POSITION                                       TOTAL-FORCE (eV/Angst)
      0.00000      0.00000      1.37721         0.000000      0.000000      0.000000
      1.22421      0.70680      1.37721         0.000000      0.000000      0.000000
    total drift:                                0.000000     -0.001078      0.000000

  FREE ENERGIE OF THE ION-ELECTRON SYSTEM (eV)
  free  energy   TOTEN  =       -18.85795002 eV

  energy  without entropy=      -18.85795002  energy(sigma->0) =      -18.85795002

 d Force = 0.0000000E+00[ 0.000E+00, 0.000E+00]  d Energy = 0.6949636E+00-0.695E+00
 d Force = 0.0000000E+00[ 0.000E+00, 0.000E+00]  d Ewald  =-0.2757189E+03 0.276E+03

 reached required accuracy - stopping structural energy minimisation
 writing wavefunctions
 BZINTS: Fermi energy:  1.308295;  8.000000 electrons
         Band energy: -63.239485;  BLOECHL correction: -0.000131