 vasp.5.4.4.18Apr17-6-g9f103f2a35 (build May 20 2018 16:52:39) complex

 executed on             LinuxIFC date 2022.11.07  00:27:10

 INCAR:
 POTCAR:    PAW Ni
 POTCAR:    PAW O
 POTCAR:    PAW Ni
   VRHFIN =Ni:

   TITEL  = PAW Ni
   POMASS =   58.690; ZVAL   =   10.000    mass and valenz
   ENMAX  =  269.561; ENMIN  =  202.171 eV
   QCUT   =   -4.451; QGAM   =    8.902    optimization parameters

   Description
     l     E      TYP  RCUT    TYP  RCUT
     2   .000     23  2.300
     2   .000     23  2.300
     0   .000     23  2.300
     0   .000     23  2.300
     1  -.200     23  2.300
     1   .000     23  2.300
     3   .000      7   .000

 POTCAR:    PAW O
   VRHFIN =O: s2p4

   TITEL  = PAW O
   POMASS =   16.000; ZVAL   =    6.000    mass and valenz
   ENMAX  =  400.000; ENMIN  =  300.000 eV
   QCUT   =   -5.520; QGAM   =   11.040    optimization parameters

   Description
     l     E      TYP  RCUT    TYP  RCUT
     0   .000     23  1.200
     0  -.700     23  1.200
     1   .000     23  1.520
     1   .600     23  1.520
     2   .000      7  1.500

  PAW Ni                                :
  PAW O                                 :

 POSCAR: NiO AFM
  positions in cartesian coordinates
  velocities in cartesian coordinates
 exchange correlation table for  LEXCH =        7
   RHO(1)=    0.500       N(1)  =     2000
   RHO(2)=  100.500       N(2)  =     4000

 ion  position               nearest neighbor table
   1  0.000  0.000  0.000-   4 2.08   4 2.08   4 2.08   3 2.08   3 2.08   3 2.08   2 2.95   2 2.95
                             2 2.95   2 2.95   2 2.95   2 2.95
   2  0.500  0.500  0.500-   3 2.08   3 2.08   3 2.08   4 2.08   4 2.08   4 2.08   1 2.95   1 2.95
                             1 2.95   1 2.95   1 2.95   1 2.95
   3  0.250  0.250  0.250-   1 2.08   1 2.08   1 2.08   2 2.08   2 2.08   2 2.08
   4  0.750  0.750  0.750-   2 2.08   2 2.08   2 2.08   1 2.08   1 2.08   1 2.08

  LATTYP: Found a trigonal (rhomboedric) cell.
 ALAT       =     5.1071861137
 COS(alpha) =     0.8333333333

  Lattice vectors:

 A1 = (   4.1700000000,   2.0850000000,   2.0850000000)
 A2 = (   2.0850000000,   4.1700000000,   2.0850000000)
 A3 = (   2.0850000000,   2.0850000000,   4.1700000000)

Analysis of symmetry for initial positions (statically):
 Subroutine PRICEL returns following result:

  LATTYP: Found a face centered cubic cell.
 ALAT       =     4.1700000000

[...]

   2 primitive cells build up your supercell.

 Routine SETGRP: Setting up the symmetry group for a
 trigonal (rhombohedral) supercell.

 Subroutine GETGRP returns: Found 12 space group operations
 (whereof 12 operations were pure point group operations)
 out of a pool of 12 trial point group operations.

The static configuration has the point symmetry D_3d.

Analysis of symmetry for dynamics (positions and initial velocities):
 Subroutine PRICEL returns following result:

[...]

The dynamic configuration has the point symmetry D_3d.

Analysis of structural, dynamic, and magnetic symmetry:
 Subroutine PRICEL returns following result:

  LATTYP: Found a face centered cubic cell.
 ALAT       =     4.1700000000

  Lattice vectors:

 A1 = (   2.0850000000,   0.0000000000,  -2.0850000000)
 A2 = (   0.0000000000,   2.0850000000,  -2.0850000000)
 A3 = (   2.0850000000,   2.0850000000,   0.0000000000)

   2 primitive cells build up your supercell.

 Routine SETGRP: Setting up the symmetry group for a
 trigonal (rhombohedral) supercell.

 Subroutine GETGRP returns: Found 12 space group operations
 (whereof 12 operations were pure point group operations)
 out of a pool of 12 trial point group operations.

The magnetic configuration has the point symmetry D_3d.

 Subroutine INISYM returns: Found 12 space group operations
 (whereof 12 operations are pure point group operations),
 and found     2 'primitive' translations

 KPOINTS: 20x20x20

Automatic generation of k-mesh.
Space group operators:
 irot       det(A)        alpha          n_x          n_y          n_z        tau_x        tau_y        tau_z
    1     1.000000     0.000000     1.000000     0.000000     0.000000     0.000000     0.000000     0.000000
    2    -1.000000     0.000000     1.000000     0.000000     0.000000     0.000000     0.000000     0.000000
    3     1.000000   180.000000     0.000000     0.707107    -0.707107     0.000000     0.000000     0.000000
    4    -1.000000   180.000000     0.000000     0.707107    -0.707107     0.000000     0.000000     0.000000
    5     1.000000   120.000000    -0.577350    -0.577350    -0.577350     0.000000     0.000000     0.000000
    6    -1.000000   120.000000    -0.577350    -0.577350    -0.577350     0.000000     0.000000     0.000000
    7     1.000000   180.000000     0.707107    -0.707107     0.000000     0.000000     0.000000     0.000000
    8    -1.000000   180.000000     0.707107    -0.707107     0.000000     0.000000     0.000000     0.000000
    9     1.000000   120.000000     0.577350     0.577350     0.577350     0.000000     0.000000     0.000000
   10    -1.000000   120.000000     0.577350     0.577350     0.577350     0.000000     0.000000     0.000000
   11     1.000000   180.000000     0.707107     0.000000    -0.707107     0.000000     0.000000     0.000000
   12    -1.000000   180.000000     0.707107     0.000000    -0.707107     0.000000     0.000000     0.000000

 Subroutine IBZKPT returns following result:

 Found    770 irreducible k-points:

 Following reciprocal coordinates:
            Coordinates               Weight
  0.025000  0.025000  0.025000      2.000000
  0.075000  0.025000  0.025000      6.000000
  0.125000  0.025000  0.025000      6.000000
  0.175000  0.025000  0.025000      6.000000
  0.225000  0.025000  0.025000      6.000000
  0.275000  0.025000  0.025000      6.000000
  0.325000  0.025000  0.025000      6.000000
  0.375000  0.025000  0.025000      6.000000
  0.425000  0.025000  0.025000      6.000000
  0.475000  0.025000  0.025000      6.000000
 -0.475000  0.025000  0.025000      6.000000
 -0.425000  0.025000  0.025000      6.000000
 -0.375000  0.025000  0.025000      6.000000
 -0.325000  0.025000  0.025000      6.000000
 -0.275000  0.025000  0.025000      6.000000
 -0.225000  0.025000  0.025000      6.000000
 -0.175000  0.025000  0.025000      6.000000
 -0.125000  0.025000  0.025000      6.000000
 -0.075000  0.025000  0.025000      6.000000
 -0.025000  0.025000  0.025000      6.000000
  0.075000  0.075000  0.025000      6.000000
  0.125000  0.075000  0.025000     12.000000
  0.175000  0.075000  0.025000     12.000000
  0.225000  0.075000  0.025000     12.000000
  0.275000  0.075000  0.025000     12.000000
  0.325000  0.075000  0.025000     12.000000
  0.375000  0.075000  0.025000     12.000000
  0.425000  0.075000  0.025000     12.000000
  0.475000  0.075000  0.025000     12.000000
 -0.475000  0.075000  0.025000     12.000000
 -0.425000  0.075000  0.025000     12.000000
 -0.375000  0.075000  0.025000     12.000000
 -0.325000  0.075000  0.025000     12.000000
 -0.275000  0.075000  0.025000     12.000000
 -0.225000  0.075000  0.025000     12.000000
 -0.175000  0.075000  0.025000     12.000000
 -0.125000  0.075000  0.025000     12.000000
 -0.075000  0.075000  0.025000     12.000000
 -0.025000  0.075000  0.025000     12.000000
  0.125000  0.125000  0.025000      6.000000
  0.175000  0.125000  0.025000     12.000000
  0.225000  0.125000  0.025000     12.000000
  0.275000  0.125000  0.025000     12.000000
  0.325000  0.125000  0.025000     12.000000
  0.375000  0.125000  0.025000     12.000000
  0.425000  0.125000  0.025000     12.000000
  0.475000  0.125000  0.025000     12.000000
 -0.475000  0.125000  0.025000     12.000000
 -0.425000  0.125000  0.025000     12.000000
 -0.375000  0.125000  0.025000     12.000000
 -0.325000  0.125000  0.025000     12.000000
 -0.275000  0.125000  0.025000     12.000000
 -0.225000  0.125000  0.025000     12.000000
 -0.175000  0.125000  0.025000     12.000000
 -0.125000  0.125000  0.025000     12.000000
 -0.075000  0.125000  0.025000     12.000000
 -0.025000  0.125000  0.025000     12.000000
  0.175000  0.175000  0.025000      6.000000
  0.225000  0.175000  0.025000     12.000000
  0.275000  0.175000  0.025000     12.000000
[...]
 -0.425000  0.475000  0.375000     12.000000
 -0.375000  0.475000  0.375000     12.000000
 -0.475000 -0.475000  0.375000      6.000000
 -0.425000 -0.475000  0.375000     12.000000
 -0.425000 -0.425000  0.375000      6.000000
  0.425000  0.425000  0.425000      2.000000
  0.475000  0.425000  0.425000      6.000000
 -0.475000  0.425000  0.425000      6.000000
 -0.425000  0.425000  0.425000      6.000000
  0.475000  0.475000  0.425000      6.000000
 -0.475000  0.475000  0.425000     12.000000
 -0.425000  0.475000  0.425000     12.000000
 -0.475000 -0.475000  0.425000      6.000000
  0.475000  0.475000  0.475000      2.000000
 -0.475000  0.475000  0.475000      6.000000

 Following cartesian coordinates:
            Coordinates               Weight
  0.012500  0.012500  0.012500      2.000000
  0.087500 -0.012500 -0.012500      6.000000
  0.162500 -0.037500 -0.037500      6.000000
  0.237500 -0.062500 -0.062500      6.000000
  0.312500 -0.087500 -0.087500      6.000000
  0.387500 -0.112500 -0.112500      6.000000
  0.462500 -0.137500 -0.137500      6.000000
  0.537500 -0.162500 -0.162500      6.000000
  0.612500 -0.187500 -0.187500      6.000000
  0.687500 -0.212500 -0.212500      6.000000
 -0.737500  0.262500  0.262500      6.000000
 -0.662500  0.237500  0.237500      6.000000
 -0.587500  0.212500  0.212500      6.000000
 -0.512500  0.187500  0.187500      6.000000
 -0.437500  0.162500  0.162500      6.000000
 -0.362500  0.137500  0.137500      6.000000
 -0.287500  0.112500  0.112500      6.000000
 -0.212500  0.087500  0.087500      6.000000
 -0.137500  0.062500  0.062500      6.000000
 -0.062500  0.037500  0.037500      6.000000
  0.062500  0.062500 -0.037500      6.000000
  0.137500  0.037500 -0.062500     12.000000
  0.212500  0.012500 -0.087500     12.000000
  0.287500 -0.012500 -0.112500     12.000000
  0.362500 -0.037500 -0.137500     12.000000
  0.437500 -0.062500 -0.162500     12.000000
  0.512500 -0.087500 -0.187500     12.000000
  0.587500 -0.112500 -0.212500     12.000000
  0.662500 -0.137500 -0.237500     12.000000
 -0.762500  0.337500  0.237500     12.000000
 -0.687500  0.312500  0.212500     12.000000
 -0.612500  0.287500  0.187500     12.000000
 -0.537500  0.262500  0.162500     12.000000
 -0.462500  0.237500  0.137500     12.000000
 -0.387500  0.212500  0.112500     12.000000
 -0.312500  0.187500  0.087500     12.000000
 -0.237500  0.162500  0.062500     12.000000
 -0.162500  0.137500  0.037500     12.000000
 -0.087500  0.112500  0.012500     12.000000
  0.112500  0.112500 -0.087500      6.000000
  0.187500  0.087500 -0.112500     12.000000
  0.262500  0.062500 -0.137500     12.000000
  0.337500  0.037500 -0.162500     12.000000
  0.412500  0.012500 -0.187500     12.000000
  0.487500 -0.012500 -0.212500     12.000000
  0.562500 -0.037500 -0.237500     12.000000
  0.637500 -0.062500 -0.262500     12.000000
 -0.787500  0.412500  0.212500     12.000000
 -0.712500  0.387500  0.187500     12.000000
[...]
 k-point 43 :   0.2750 0.1250 0.0250  plane waves:     655
 k-point 44 :   0.3250 0.1250 0.0250  plane waves:     656
 k-point 45 :   0.3750 0.1250 0.0250  plane waves:     659
 k-point 46 :   0.4250 0.1250 0.0250  plane waves:     660
 k-point 47 :   0.4750 0.1250 0.0250  plane waves:     657
 k-point 48 :  -0.4750 0.1250 0.0250  plane waves:     658
 k-point 49 :  -0.4250 0.1250 0.0250  plane waves:     665
 k-point 50 :  -0.3750 0.1250 0.0250  plane waves:     661
 k-point 51 :  -0.3250 0.1250 0.0250  plane waves:     661
 k-point 52 :  -0.2750 0.1250 0.0250  plane waves:     663
 k-point 53 :  -0.2250 0.1250 0.0250  plane waves:     659
 k-point 54 :  -0.1750 0.1250 0.0250  plane waves:     657
 k-point 55 :  -0.1250 0.1250 0.0250  plane waves:     656
 k-point 56 :  -0.0750 0.1250 0.0250  plane waves:     657
 k-point 57 :  -0.0250 0.1250 0.0250  plane waves:     661
 k-point 58 :   0.1750 0.1750 0.0250  plane waves:     659
 k-point 59 :   0.2250 0.1750 0.0250  plane waves:     653
 k-point 60 :   0.2750 0.1750 0.0250  plane waves:     655
[...]
 k-point 85 :  -0.2750 0.2250 0.0250  plane waves:     657
 k-point 86 :  -0.2250 0.2250 0.0250  plane waves:     656
 k-point 87 :  -0.1750 0.2250 0.0250  plane waves:     650
 k-point 88 :  -0.1250 0.2250 0.0250  plane waves:     655
 k-point 89 :  -0.0750 0.2250 0.0250  plane waves:     655
 k-point 90 :  -0.0250 0.2250 0.0250  plane waves:     656
 k-point 91 :   0.2750 0.2750 0.0250  plane waves:     653
 k-point 92 :   0.3250 0.2750 0.0250  plane waves:     657
 k-point 93 :   0.3750 0.2750 0.0250  plane waves:     661
 k-point 94 :   0.4250 0.2750 0.0250  plane waves:     660
 k-point 95 :   0.4750 0.2750 0.0250  plane waves:     663
 k-point 96 :  -0.4750 0.2750 0.0250  plane waves:     660
 k-point 97 :  -0.4250 0.2750 0.0250  plane waves:     661
 k-point 98 :  -0.3750 0.2750 0.0250  plane waves:     660
 k-point 99 :  -0.3250 0.2750 0.0250  plane waves:     663
 k-point ** :  -0.2750 0.2750 0.0250  plane waves:     662
 k-point ** :  -0.2250 0.2750 0.0250  plane waves:     655
 k-point ** :  -0.1750 0.2750 0.0250  plane waves:     654
 k-point ** :  -0.1250 0.2750 0.0250  plane waves:     658
 k-point ** :  -0.0750 0.2750 0.0250  plane waves:     659
 k-point ** :  -0.0250 0.2750 0.0250  plane waves:     658
 k-point ** :   0.3250 0.3250 0.0250  plane waves:     663
 k-point ** :   0.3750 0.3250 0.0250  plane waves:     663
 k-point ** :   0.4250 0.3250 0.0250  plane waves:     659
 k-point ** :   0.4750 0.3250 0.0250  plane waves:     662
 k-point ** :  -0.4750 0.3250 0.0250  plane waves:     665
 k-point ** :  -0.4250 0.3250 0.0250  plane waves:     664
 k-point ** :  -0.3750 0.3250 0.0250  plane waves:     663
 k-point ** :  -0.3250 0.3250 0.0250  plane waves:     658
 k-point ** :  -0.2750 0.3250 0.0250  plane waves:     659
 k-point ** :  -0.2250 0.3250 0.0250  plane waves:     659
 k-point ** :  -0.1750 0.3250 0.0250  plane waves:     655
 k-point ** :  -0.1250 0.3250 0.0250  plane waves:     657
 k-point ** :  -0.0750 0.3250 0.0250  plane waves:     660
 k-point ** :  -0.0250 0.3250 0.0250  plane waves:     659
 k-point ** :   0.3750 0.3750 0.0250  plane waves:     662
 k-point ** :   0.4250 0.3750 0.0250  plane waves:     658
 k-point ** :   0.4750 0.3750 0.0250  plane waves:     662
 k-point ** :  -0.4750 0.3750 0.0250  plane waves:     663
 k-point ** :  -0.4250 0.3750 0.0250  plane waves:     659
 k-point ** :  -0.3750 0.3750 0.0250  plane waves:     660
 k-point ** :  -0.3250 0.3750 0.0250  plane waves:     662
 k-point ** :  -0.2750 0.3750 0.0250  plane waves:     659
 k-point ** :  -0.2250 0.3750 0.0250  plane waves:     661
 k-point ** :  -0.1750 0.3750 0.0250  plane waves:     661
 k-point ** :  -0.1250 0.3750 0.0250  plane waves:     658
 k-point ** :  -0.0750 0.3750 0.0250  plane waves:     657
 k-point ** :  -0.0250 0.3750 0.0250  plane waves:     658
 k-point ** :   0.4250 0.4250 0.0250  plane waves:     660
 k-point ** :   0.4750 0.4250 0.0250  plane waves:     662
 k-point ** :  -0.4750 0.4250 0.0250  plane waves:     666
 k-point ** :  -0.4250 0.4250 0.0250  plane waves:     656
 k-point ** :  -0.3750 0.4250 0.0250  plane waves:     661
 k-point ** :  -0.3250 0.4250 0.0250  plane waves:     663
 k-point ** :  -0.2750 0.4250 0.0250  plane waves:     665
 k-point ** :  -0.2250 0.4250 0.0250  plane waves:     661
 k-point ** :  -0.1750 0.4250 0.0250  plane waves:     663
 k-point ** :  -0.1250 0.4250 0.0250  plane waves:     664
 k-point ** :  -0.0750 0.4250 0.0250  plane waves:     659
 k-point ** :  -0.0250 0.4250 0.0250  plane waves:     661
 k-point ** :   0.4750 0.4750 0.0250  plane waves:     670
 k-point ** :  -0.4750 0.4750 0.0250  plane waves:     672
 k-point ** :  -0.4250 0.4750 0.0250  plane waves:     661
 k-point ** :  -0.3750 0.4750 0.0250  plane waves:     658
 k-point ** :  -0.3250 0.4750 0.0250  plane waves:     661
 k-point ** :  -0.2750 0.4750 0.0250  plane waves:     664
 k-point ** :  -0.2250 0.4750 0.0250  plane waves:     662
 k-point ** :  -0.1750 0.4750 0.0250  plane waves:     661
 k-point ** :  -0.1250 0.4750 0.0250  plane waves:     662
 k-point ** :  -0.0750 0.4750 0.0250  plane waves:     663
 k-point ** :  -0.0250 0.4750 0.0250  plane waves:     659
 k-point ** :  -0.4750-0.4750 0.0250  plane waves:     672
 k-point ** :  -0.4250-0.4750 0.0250  plane waves:     671
 k-point ** :  -0.3750-0.4750 0.0250  plane waves:     662
 k-point ** :  -0.3250-0.4750 0.0250  plane waves:     664
[...]
 k-point ** :  -0.4250 0.4750 0.3750  plane waves:     654
 k-point ** :  -0.3750 0.4750 0.3750  plane waves:     653
 k-point ** :  -0.4750-0.4750 0.3750  plane waves:     652
 k-point ** :  -0.4250-0.4750 0.3750  plane waves:     653
 k-point ** :  -0.4250-0.4250 0.3750  plane waves:     650
 k-point ** :   0.4250 0.4250 0.4250  plane waves:     652
 k-point ** :   0.4750 0.4250 0.4250  plane waves:     653
 k-point ** :  -0.4750 0.4250 0.4250  plane waves:     655
 k-point ** :  -0.4250 0.4250 0.4250  plane waves:     654
 k-point ** :   0.4750 0.4750 0.4250  plane waves:     648
 k-point ** :  -0.4750 0.4750 0.4250  plane waves:     652
 k-point ** :  -0.4250 0.4750 0.4250  plane waves:     655
 k-point ** :  -0.4750-0.4750 0.4250  plane waves:     653
 k-point ** :   0.4750 0.4750 0.4750  plane waves:     649
 k-point ** :  -0.4750 0.4750 0.4750  plane waves:     648

 maximum and minimum number of plane-waves per node :       673      646

 maximum number of plane-waves:       673
 maximum index in each direction:
   IXMAX=    8   IYMAX=    8   IZMAX=    8
   IXMIN=   -8   IYMIN=   -8   IZMIN=   -8

 serial   3D FFT for wavefunctions
 parallel 3D FFT for charge:
    minimum data exchange during FFTs selected (reduces bandwidth)

 Broyden mixing: mesh for mixing (old mesh)
   NGX = 17   NGY = 17   NGZ = 17
  (NGX  = 56   NGY  = 56   NGZ  = 56)
  gives a total of   4913 points

 initial charge density was supplied:
 charge density of overlapping atoms calculated
 number of electron      32.0000000 magnetization       0.0000000
 keeping initial charge density in first step

 Maximum index for augmentation-charges        19063 (set IRDMAX)

 First call to EWALD:  gamma=   0.536
 Maximum number of real-space cells 3x 3x 3
 Maximum number of reciprocal cells 4x 4x 4

--------------------------------------- Iteration      1(   1)  ---------------------------------------

 BZINTS: Fermi energy: 17.471331; 32.000000 electrons
         Band energy: 264.932678;  BLOECHL correction: -0.326629

 eigenvalue-minimisations  : 63368
 total energy-change (2. order) : 0.2303759E+03  (-0.1411290E+04)
 number of electron      32.0000000 magnetization       0.0000000
 augmentation part       32.0000000 magnetization       0.0000000

 Free energy of the ion-electron system (eV)
  alpha Z        PSCENC =       217.71629331
  Ewald energy   TEWEN  =     -2604.77031634
  -Hartree energ DENC   =      -652.85252222
  -exchange      EXHF   =         0.00000000
  -V(xc)+E(xc)   XCENC  =       118.86465051
  PAW double counting   =      2234.65535088    -2372.91272868
  entropy T*S    EENTRO =         0.00000000
  eigenvalues    EBANDS =       264.93267756
  atomic energy  EATOM  =      3024.74254395
  Solvation  Ediel_sol  =         0.00000000
  free energy    TOTEN  =       230.37594896 eV

  energy without entropy =      230.37594896  energy(sigma->0) =      230.37594896

[...]

 eigenvalue-minimisations  : 63284
 total energy-change (2. order) :-0.2317472E+03  (-0.2168215E+03)
 number of electron      32.0000000 magnetization       0.0000000
 augmentation part       32.0000000 magnetization       0.0000000

[...]

 Broyden mixing:
  rms(total) = 0.15530E+01    rms(broyden)= 0.15493E+01
  rms(prec ) = 0.31925E+01
  weight for this iteration     100.00

[...]

 eigenvalues of (default mixing * dielectric matrix)
  average eigenvalue GAMMA=   0.4231
  0.4231

[...]

 eigenvalue-minimisations  :102368
 total energy-change (2. order) : 0.3781673E-01  (-0.2721568E-01)
 number of electron      32.0000046 magnetization       0.0000000
 augmentation part       13.8011273 magnetization       0.0000000

[...]

 eigenvalue-minimisations  : 96512
 total energy-change (2. order) : 0.9110101E-03  (-0.5424076E-03)
 number of electron      32.0000046 magnetization       0.0000000
 augmentation part       13.7741376 magnetization       0.0000000

 Broyden mixing:
  rms(total) = 0.30057E-02    rms(broyden)= 0.28584E-02
  rms(prec ) = 0.45356E-02
  weight for this iteration     100.00

 eigenvalues of (default mixing * dielectric matrix)
  average eigenvalue GAMMA=   1.0740
  2.5880  1.2569  0.9286  0.9286  0.5749  0.5749  0.6660

[...]

--------------------------------------- Iteration      1(  13)  ---------------------------------------

[...]

 eigenvalue-minimisations  : 43316
 total energy-change (2. order) :-0.4972483E-04  (-0.2304014E-04)
 number of electron      32.0000046 magnetization       0.0000000
 augmentation part       13.7741376 magnetization       0.0000000

 Free energy of the ion-electron system (eV)
  alpha Z        PSCENC =       217.71629331
  Ewald energy   TEWEN  =     -2604.77031634
  -Hartree energ DENC   =      -636.43435305
  -exchange      EXHF   =         0.00000000
  -V(xc)+E(xc)   XCENC  =       118.73903052
  PAW double counting   =      2353.28107720    -2496.35884210
  entropy T*S    EENTRO =         0.00000000
  eigenvalues    EBANDS =        -0.28349529
  atomic energy  EATOM  =      3024.74254395
  Solvation  Ediel_sol  =         0.00000000
  free energy    TOTEN  =       -23.36806180 eV

  energy without entropy =      -23.36806180  energy(sigma->0) =      -23.36806180

 average (electrostatic) potential at core
  the test charge radii are     0.9791  0.7215
  (the norm of the test charge is              1.0000)
       1 -42.5013       2 -42.5013       3 -71.8734       4 -71.8734

 E-fermi :   4.7390     XC(G=0): -12.7552     alpha+bet :-11.2748

 spin component 1

 k-point     1 :       0.0250    0.0250    0.0250
  band No.  band energies     occupation
      1     -15.1103      1.00000
      2     -13.7172      1.00000
      3      -2.9505      1.00000
      4      -0.3312      1.00000
      5      -0.3312      1.00000
      6       2.2314      1.00000
      7       2.2314      1.00000
      8       2.2319      1.00000
      9       2.8454      1.00000
     10       2.8454      1.00000
     11       2.9323      1.00000
     12       3.1900      1.00000
     13       3.1900      1.00000
     14       4.0937      1.00000
     15       4.0937      1.00000
     16       4.3945      1.00000
     17       6.5369      0.00000
     18       6.5369      0.00000
     19       6.9189      0.00000
     20      10.9005      0.00000

[...]

 spin component 2

[...]

 k-point   770 :      -0.4750    0.4750    0.4750
  band No.  band energies     occupation
      1     -14.4753      1.00000
      2     -14.4388      1.00000
      3      -0.9729      1.00000
      4      -0.8636      1.00000
      5       0.2088      1.00000
      6       0.2742      1.00000
      7       0.7891      1.00000
      8       0.8354      1.00000
      9       2.9529      1.00000
     10       2.9858      1.00000
     11       3.3629      1.00000
     12       3.9025      1.00000
     13       3.9078      1.00000
     14       4.0808      1.00000
     15       4.5629      1.00000
     16       4.5892      1.00000
     17       5.8805      0.00000
     18       5.9770      0.00000
     19       9.6675      0.00000
     20       9.8006      0.00000

 soft charge-density along one line, spin component           1
         0         1         2         3         4         5         6         7         8         9
 total charge-density along one line

 soft charge-density along one line, spin component           2
         0         1         2         3         4         5         6         7         8         9
 total charge-density along one line

------------------------ aborting loop because EDIFF is reached ----------------------------------------

 total charge

# of ion       s       p       d       tot
    1        0.329   0.403   8.295   9.026
    2        0.329   0.403   8.295   9.026
    3        1.589   3.419   0.000   5.008
    4        1.589   3.419   0.000   5.008
tot          3.836   7.644  16.590  28.069

 magnetization (x)

[...]

  FORCE on cell =-STRESS in cart. coord.  units (eV):
  Direction    XX          YY          ZZ          XY          YZ          ZX
  Alpha Z   217.71629   217.71629   217.71629
  Ewald    -868.25805  -868.25805  -868.25805     0.00000    -0.00000    -0.00000
  Hartree   212.14016   212.14016   212.14016    -0.01956    -0.01956    -0.01956
  E(xc)    -170.90334  -170.90334  -170.90334     0.00187     0.00187     0.00187
  Local     186.18166   186.18166   186.18166    -0.01472    -0.01472    -0.01472
  n-local  -110.39678  -112.80527  -110.72096     0.10277     0.02072    -0.21665
  augment   117.94547   117.94547   117.94547    -0.03133    -0.03133    -0.03133
  Kinetic   413.92731   417.76724   414.91840    -0.46544     0.24472     0.31873
  Fock        0.00000     0.00000     0.00000     0.00000     0.00000     0.00000
  Total      -0.94783    -0.94783    -0.94783    -0.06908    -0.06908    -0.06908
  in kB     -41.88522   -41.88522   -41.88522    -3.05258    -3.05258    -3.05258

 VOLUME and BASIS-vectors are now :
  energy-cutoff  :      400.00
  volume of cell :       36.26
      direct lattice vectors                 reciprocal lattice vectors
     4.170000000  2.085000000  2.085000000     0.359712230 -0.119904077 -0.119904077
     2.085000000  4.170000000  2.085000000    -0.119904077  0.359712230 -0.119904077
     2.085000000  2.085000000  4.170000000    -0.119904077 -0.119904077  0.359712230

  length of vectors
     5.107186114  5.107186114  5.107186114     0.397676833  0.397676833  0.397676833

 FORCES acting on ions
    electron-ion (+dipol)            ewald-force                    non-local-force                 convergence-correction
   -.633E-13 -.160E-13 -.123E-12   0.000E+00 -.284E-13 -.568E-13   0.662E-23 0.132E-22 -.132E-22   0.185E-13 0.607E-13 0.551E-13
   0.809E-12 0.197E-11 0.210E-11   0.568E-13 0.284E-13 0.000E+00   0.000E+00 0.662E-23 -.132E-22   -.759E-13 -.580E-13 -.550E-13
   -.455E-12 0.634E-12 0.630E-12   -.426E-13 -.131E-13 0.169E-13   -.265E-22 -.397E-22 -.265E-22   0.298E-13 0.197E-13 0.173E-13
   0.243E-11 -.908E-12 -.914E-12   -.152E-13 0.134E-13 0.426E-13   0.265E-22 -.265E-22 -.529E-22   -.297E-13 0.262E-14 0.837E-14
   0.272E-11 0.168E-11 0.169E-11   -.869E-15 0.280E-15 0.262E-14   0.662E-23 -.463E-22 -.106E-21   -.573E-13 0.249E-13 0.258E-13

 POSITION                                       TOTAL-FORCE (eV/Angst)
      0.00000      0.00000      0.00000        -0.000000     -0.000000     -0.000000
      4.17000      4.17000      4.17000        -0.000000     -0.000000     -0.000000
      2.08500      2.08500      2.08500         0.000000     -0.000000      0.000000
      6.25500      6.25500      6.25500         0.000000      0.000000      0.000000
    total drift:                                0.000000      0.000000      0.000000

  FREE ENERGIE OF THE ION-ELECTRON SYSTEM (eV)
  free  energy   TOTEN  =       -23.36806180 eV

  energy  without entropy=      -23.36806180  energy(sigma->0) =      -23.36806180

 total charge

[...]

 magnetization (x)

# of ion       s       p       d       tot
    1       -0.010  -0.013   1.271   1.248
    2        0.010   0.013  -1.271  -1.248
    3        0.000  -0.000   0.000   0.000
    4        0.000  -0.000   0.000   0.000
tot          0.000   0.000  -0.000  -0.000

 BZINTS: Fermi energy:  4.739050; 32.000000 electrons
         Band energy:  -0.283495;  BLOECHL correction:  0.000000