 vasp.5.4.4.18Apr17-6-g9f103f2a35 (build May 20 2018 16:52:39) complex

 executed on             LinuxIFC date 2022.10.21  21:07:40

 INCAR:
 POTCAR:    PAW Si
 POTCAR:    PAW Si
   VRHFIN =Si: s2p2

   TITEL  = PAW Si
   POMASS =   28.085; ZVAL   =    4.000    mass and valenz
   ENMAX  =  245.435; ENMIN  =  184.076 eV
   QCUT   =   -4.247; QGAM   =    8.494    optimization parameters

   Description
     l     E      TYP  RCUT    TYP  RCUT
     0   .000     23  1.900
     0   .000     23  1.900
     1   .000     23  1.900
     1   .000     23  1.900
     2   .000      7  1.900

  PAW Si                                :

 POSCAR: Si
  positions in direct lattice
  velocities in cartesian coordinates
 exchange correlation table for  LEXCH =        7
   RHO(1)=    0.500       N(1)  =     2000
   RHO(2)=  100.500       N(2)  =     4000

 ion  position               nearest neighbor table
   1  0.000  0.000  0.000-   2 2.36   2 2.36   2 2.36   2 2.36
   2  0.250  0.250  0.250-   1 2.36   1 2.36   1 2.36   1 2.36

  LATTYP: Found a face centered cubic cell.
 ALAT       =     5.4613726379

  Lattice vectors:

 A1 = (   2.7306863189,   2.7306863189,   0.0000000000)
 A2 = (   0.0000000000,   2.7306863189,   2.7306863189)
 A3 = (   2.7306863189,   0.0000000000,   2.7306863189)

Analysis of symmetry for initial positions (statically):
 Subroutine PRICEL returns:
 Original cell was already a primitive cell.

 Routine SETGRP: Setting up the symmetry group for a
 face centered cubic supercell.

 Subroutine GETGRP returns: Found 48 space group operations
 (whereof 24 operations were pure point group operations)
 out of a pool of 48 trial point group operations.

The static configuration has the point symmetry T_d .
 The point group associated with its full space group is O_h .

Analysis of symmetry for dynamics (positions and initial velocities):
 Subroutine PRICEL returns:
 Original cell was already a primitive cell.

 Routine SETGRP: Setting up the symmetry group for a
 face centered cubic supercell.

 Subroutine GETGRP returns: Found 48 space group operations
 (whereof 24 operations were pure point group operations)
 out of a pool of 48 trial point group operations.

The dynamic configuration has the point symmetry T_d .
 The point group associated with its full space group is O_h .

 Subroutine INISYM returns: Found 48 space group operations
 (whereof 24 operations are pure point group operations),
 and found     1 'primitive' translations

 KPOINTS: 20x20x20

Automatic generation of k-mesh.
Space group operators:
 irot       det(A)        alpha          n_x          n_y          n_z        tau_x        tau_y        tau_z
    1     1.000000     0.000000     1.000000     0.000000     0.000000     0.000000     0.000000     0.000000
    2     1.000000   120.000000    -0.577350    -0.577350    -0.577350     0.000000     0.000000     0.000000
    3     1.000000   120.000000     0.577350     0.577350     0.577350     0.000000     0.000000     0.000000
    4    -1.000000    90.000000     0.000000    -1.000000     0.000000     0.000000     0.000000     0.000000
    5    -1.000000   180.000000     0.707107     0.707107     0.000000     0.000000     0.000000     0.000000
    6    -1.000000    90.000000     1.000000     0.000000     0.000000     0.000000     0.000000     0.000000
    7     1.000000   180.000000     0.000000     1.000000     0.000000     0.000000     0.000000     0.000000
    8     1.000000   120.000000     0.577350     0.577350    -0.577350     0.000000     0.000000     0.000000
    9     1.000000   120.000000     0.577350    -0.577350    -0.577350     0.000000     0.000000     0.000000
   10    -1.000000    90.000000     0.000000     1.000000     0.000000     0.000000     0.000000     0.000000
   11    -1.000000    90.000000     0.000000     0.000000    -1.000000     0.000000     0.000000     0.000000
   12    -1.000000   180.000000     0.000000     0.707107     0.707107     0.000000     0.000000     0.000000
   13     1.000000   120.000000    -0.577350     0.577350     0.577350     0.000000     0.000000     0.000000
   14     1.000000   120.000000    -0.577350     0.577350    -0.577350     0.000000     0.000000     0.000000
   15     1.000000   180.000000     0.000000     0.000000     1.000000     0.000000     0.000000     0.000000
   16    -1.000000    90.000000    -1.000000     0.000000     0.000000     0.000000     0.000000     0.000000
   17    -1.000000   180.000000     0.707107     0.000000     0.707107     0.000000     0.000000     0.000000
   18    -1.000000    90.000000     0.000000     0.000000     1.000000     0.000000     0.000000     0.000000
   19     1.000000   120.000000    -0.577350    -0.577350     0.577350     0.000000     0.000000     0.000000
   20     1.000000   180.000000     1.000000     0.000000     0.000000     0.000000     0.000000     0.000000
   21     1.000000   120.000000     0.577350    -0.577350     0.577350     0.000000     0.000000     0.000000
   22    -1.000000   180.000000     0.707107    -0.707107     0.000000     0.000000     0.000000     0.000000
   23    -1.000000   180.000000     0.707107     0.000000    -0.707107     0.000000     0.000000     0.000000
   24    -1.000000   180.000000     0.000000    -0.707107     0.707107     0.000000     0.000000     0.000000
   25    -1.000000     0.000000     1.000000     0.000000     0.000000     0.250000     0.250000     0.250000
   26    -1.000000   120.000000    -0.577350    -0.577350    -0.577350     0.250000     0.250000     0.250000
   27    -1.000000   120.000000     0.577350     0.577350     0.577350     0.250000     0.250000     0.250000
   28     1.000000    90.000000     0.000000    -1.000000     0.000000     0.250000     0.250000     0.250000
   29     1.000000   180.000000     0.707107     0.707107     0.000000     0.250000     0.250000     0.250000
   30     1.000000    90.000000     1.000000     0.000000     0.000000     0.250000     0.250000     0.250000
   31    -1.000000   180.000000     0.000000     1.000000     0.000000     0.250000     0.250000     0.250000
   32    -1.000000   120.000000     0.577350     0.577350    -0.577350     0.250000     0.250000     0.250000
   33    -1.000000   120.000000     0.577350    -0.577350    -0.577350     0.250000     0.250000     0.250000
   34     1.000000    90.000000     0.000000     1.000000     0.000000     0.250000     0.250000     0.250000
   35     1.000000    90.000000     0.000000     0.000000    -1.000000     0.250000     0.250000     0.250000
   36     1.000000   180.000000     0.000000     0.707107     0.707107     0.250000     0.250000     0.250000
   37    -1.000000   120.000000    -0.577350     0.577350     0.577350     0.250000     0.250000     0.250000
   38    -1.000000   120.000000    -0.577350     0.577350    -0.577350     0.250000     0.250000     0.250000
   39    -1.000000   180.000000     0.000000     0.000000     1.000000     0.250000     0.250000     0.250000
   40     1.000000    90.000000    -1.000000     0.000000     0.000000     0.250000     0.250000     0.250000
   41     1.000000   180.000000     0.707107     0.000000     0.707107     0.250000     0.250000     0.250000
   42     1.000000    90.000000     0.000000     0.000000     1.000000     0.250000     0.250000     0.250000
   43    -1.000000   120.000000    -0.577350    -0.577350     0.577350     0.250000     0.250000     0.250000
   44    -1.000000   180.000000     1.000000     0.000000     0.000000     0.250000     0.250000     0.250000
   45    -1.000000   120.000000     0.577350    -0.577350     0.577350     0.250000     0.250000     0.250000
   46     1.000000   180.000000     0.707107    -0.707107     0.000000     0.250000     0.250000     0.250000
   47     1.000000   180.000000     0.707107     0.000000    -0.707107     0.250000     0.250000     0.250000
   48     1.000000   180.000000     0.000000    -0.707107     0.707107     0.250000     0.250000     0.250000

 Subroutine IBZKPT returns following result:

 Found    770 irreducible k-points:

 Following reciprocal coordinates:
            Coordinates               Weight
  0.025000  0.025000  0.025000     96.000000
  0.075000  0.025000  0.025000    288.000000
  0.125000  0.025000  0.025000    288.000000
  0.175000  0.025000  0.025000    288.000000
  0.225000  0.025000  0.025000    288.000000
  0.275000  0.025000  0.025000    288.000000
  0.325000  0.025000  0.025000    288.000000
  0.375000  0.025000  0.025000    288.000000
  0.425000  0.025000  0.025000    288.000000
  0.475000  0.025000  0.025000    288.000000
 -0.475000  0.025000  0.025000    288.000000
 -0.425000  0.025000  0.025000    288.000000
 -0.375000  0.025000  0.025000    288.000000
 -0.325000  0.025000  0.025000    288.000000
 -0.275000  0.025000  0.025000    288.000000
 -0.225000  0.025000  0.025000    288.000000
 -0.175000  0.025000  0.025000    288.000000
 -0.125000  0.025000  0.025000    288.000000
 -0.075000  0.025000  0.025000    288.000000
 -0.025000  0.025000  0.025000    288.000000
  0.075000  0.075000  0.025000    288.000000
  0.125000  0.075000  0.025000    576.000000
  0.175000  0.075000  0.025000    576.000000
  0.225000  0.075000  0.025000    576.000000
  0.275000  0.075000  0.025000    576.000000
  0.325000  0.075000  0.025000    576.000000
  0.375000  0.075000  0.025000    576.000000
  0.425000  0.075000  0.025000    576.000000
  0.475000  0.075000  0.025000    576.000000
 -0.475000  0.075000  0.025000    576.000000
 -0.425000  0.075000  0.025000    576.000000
 -0.375000  0.075000  0.025000    576.000000
 -0.325000  0.075000  0.025000    576.000000
 -0.275000  0.075000  0.025000    576.000000
 -0.225000  0.075000  0.025000    576.000000
 -0.175000  0.075000  0.025000    576.000000
 -0.125000  0.075000  0.025000    576.000000
 -0.075000  0.075000  0.025000    576.000000
 -0.025000  0.075000  0.025000    576.000000
  0.125000  0.125000  0.025000    288.000000
  0.175000  0.125000  0.025000    576.000000
  0.225000  0.125000  0.025000    576.000000
  0.275000  0.125000  0.025000    576.000000
  0.325000  0.125000  0.025000    576.000000
  0.375000  0.125000  0.025000    576.000000
  0.425000  0.125000  0.025000    576.000000
  0.475000  0.125000  0.025000    576.000000
 -0.475000  0.125000  0.025000    576.000000
 -0.425000  0.125000  0.025000    576.000000
 -0.375000  0.125000  0.025000    576.000000
 -0.325000  0.125000  0.025000    576.000000
 -0.275000  0.125000  0.025000    576.000000
 -0.225000  0.125000  0.025000    576.000000
 -0.175000  0.125000  0.025000    576.000000
 -0.125000  0.125000  0.025000    576.000000
 -0.075000  0.125000  0.025000    576.000000
 -0.025000  0.125000  0.025000    576.000000
  0.175000  0.175000  0.025000    288.000000
  0.225000  0.175000  0.025000    576.000000
  0.275000  0.175000  0.025000    576.000000
[...]
 -0.425000  0.475000  0.375000    576.000000
 -0.375000  0.475000  0.375000    576.000000
 -0.475000 -0.475000  0.375000    288.000000
 -0.425000 -0.475000  0.375000    576.000000
 -0.425000 -0.425000  0.375000    288.000000
  0.425000  0.425000  0.425000     96.000000
  0.475000  0.425000  0.425000    288.000000
 -0.475000  0.425000  0.425000    288.000000
[...]
  -0.42500000 -0.47500000  0.37500000       0.002
  -0.42500000 -0.42500000  0.37500000       0.001
   0.42500000  0.42500000  0.42500000       0.000
   0.47500000  0.42500000  0.42500000       0.001
  -0.47500000  0.42500000  0.42500000       0.001
  -0.42500000  0.42500000  0.42500000       0.001
   0.47500000  0.47500000  0.42500000       0.001
  -0.47500000  0.47500000  0.42500000       0.002
  -0.42500000  0.47500000  0.42500000       0.002
  -0.47500000 -0.47500000  0.42500000       0.001
   0.47500000  0.47500000  0.47500000       0.000
  -0.47500000  0.47500000  0.47500000       0.001

 position of ions in fractional coordinates (direct lattice)
   0.00000000  0.00000000  0.00000000
   0.25000000  0.25000000  0.25000000

 position of ions in cartesian coordinates  (Angst):
   0.00000000  0.00000000  0.00000000
   1.36534316  1.36534316  1.36534316

 k-point  1 :   0.0250 0.0250 0.0250  plane waves:     339
 k-point  2 :   0.0750 0.0250 0.0250  plane waves:     337
 k-point  3 :   0.1250 0.0250 0.0250  plane waves:     338
 k-point  4 :   0.1750 0.0250 0.0250  plane waves:     348
 k-point  5 :   0.2250 0.0250 0.0250  plane waves:     354
 k-point  6 :   0.2750 0.0250 0.0250  plane waves:     352
 k-point  7 :   0.3250 0.0250 0.0250  plane waves:     352
 k-point  8 :   0.3750 0.0250 0.0250  plane waves:     355
 k-point  9 :   0.4250 0.0250 0.0250  plane waves:     353
 k-point 10 :   0.4750 0.0250 0.0250  plane waves:     354
 k-point 11 :  -0.4750 0.0250 0.0250  plane waves:     354
 k-point 12 :  -0.4250 0.0250 0.0250  plane waves:     356
 k-point 13 :  -0.3750 0.0250 0.0250  plane waves:     353
 k-point 14 :  -0.3250 0.0250 0.0250  plane waves:     357
 k-point 15 :  -0.2750 0.0250 0.0250  plane waves:     353
 k-point 16 :  -0.2250 0.0250 0.0250  plane waves:     354
 k-point 17 :  -0.1750 0.0250 0.0250  plane waves:     355
 k-point 18 :  -0.1250 0.0250 0.0250  plane waves:     344
 k-point 19 :  -0.0750 0.0250 0.0250  plane waves:     336
 k-point 20 :  -0.0250 0.0250 0.0250  plane waves:     338
 k-point 21 :   0.0750 0.0750 0.0250  plane waves:     336
 k-point 22 :   0.1250 0.0750 0.0250  plane waves:     340
 k-point 23 :   0.1750 0.0750 0.0250  plane waves:     346
 k-point 24 :   0.2250 0.0750 0.0250  plane waves:     352
 k-point 25 :   0.2750 0.0750 0.0250  plane waves:     353
 k-point 26 :   0.3250 0.0750 0.0250  plane waves:     352
 k-point 27 :   0.3750 0.0750 0.0250  plane waves:     354
 k-point 28 :   0.4250 0.0750 0.0250  plane waves:     355
 k-point 29 :   0.4750 0.0750 0.0250  plane waves:     355
 k-point 30 :  -0.4750 0.0750 0.0250  plane waves:     355
 k-point 31 :  -0.4250 0.0750 0.0250  plane waves:     355
 k-point 32 :  -0.3750 0.0750 0.0250  plane waves:     354
 k-point 33 :  -0.3250 0.0750 0.0250  plane waves:     355
 k-point 34 :  -0.2750 0.0750 0.0250  plane waves:     352
 k-point 35 :  -0.2250 0.0750 0.0250  plane waves:     352
 k-point 36 :  -0.1750 0.0750 0.0250  plane waves:     353
 k-point 37 :  -0.1250 0.0750 0.0250  plane waves:     349
 k-point 38 :  -0.0750 0.0750 0.0250  plane waves:     341
 k-point 39 :  -0.0250 0.0750 0.0250  plane waves:     337
 k-point 40 :   0.1250 0.1250 0.0250  plane waves:     343
 k-point 41 :   0.1750 0.1250 0.0250  plane waves:     346
 k-point 42 :   0.2250 0.1250 0.0250  plane waves:     349
 k-point 43 :   0.2750 0.1250 0.0250  plane waves:     349
 k-point 44 :   0.3250 0.1250 0.0250  plane waves:     352
 k-point 45 :   0.3750 0.1250 0.0250  plane waves:     355
 k-point 46 :   0.4250 0.1250 0.0250  plane waves:     357
 k-point 47 :   0.4750 0.1250 0.0250  plane waves:     355
 k-point 48 :  -0.4750 0.1250 0.0250  plane waves:     359
 k-point 49 :  -0.4250 0.1250 0.0250  plane waves:     359
 k-point 50 :  -0.3750 0.1250 0.0250  plane waves:     357
 k-point 51 :  -0.3250 0.1250 0.0250  plane waves:     358
 k-point 52 :  -0.2750 0.1250 0.0250  plane waves:     353
 k-point 53 :  -0.2250 0.1250 0.0250  plane waves:     352
 k-point 54 :  -0.1750 0.1250 0.0250  plane waves:     353
 k-point 55 :  -0.1250 0.1250 0.0250  plane waves:     354
 k-point 56 :  -0.0750 0.1250 0.0250  plane waves:     348
 k-point 57 :  -0.0250 0.1250 0.0250  plane waves:     341
 k-point 58 :   0.1750 0.1750 0.0250  plane waves:     351
 k-point 59 :   0.2250 0.1750 0.0250  plane waves:     350
 k-point 60 :   0.2750 0.1750 0.0250  plane waves:     352
[...]
 k-point 85 :  -0.2750 0.2250 0.0250  plane waves:     355
 k-point 86 :  -0.2250 0.2250 0.0250  plane waves:     356
 k-point 87 :  -0.1750 0.2250 0.0250  plane waves:     356
 k-point 88 :  -0.1250 0.2250 0.0250  plane waves:     352
 k-point 89 :  -0.0750 0.2250 0.0250  plane waves:     353
 k-point 90 :  -0.0250 0.2250 0.0250  plane waves:     355
 k-point 91 :   0.2750 0.2750 0.0250  plane waves:     350
 k-point 92 :   0.3250 0.2750 0.0250  plane waves:     348
 k-point 93 :   0.3750 0.2750 0.0250  plane waves:     351
 k-point 94 :   0.4250 0.2750 0.0250  plane waves:     349
 k-point 95 :   0.4750 0.2750 0.0250  plane waves:     353
 k-point 96 :  -0.4750 0.2750 0.0250  plane waves:     357
 k-point 97 :  -0.4250 0.2750 0.0250  plane waves:     361
 k-point 98 :  -0.3750 0.2750 0.0250  plane waves:     362
 k-point 99 :  -0.3250 0.2750 0.0250  plane waves:     361
 k-point ** :  -0.2750 0.2750 0.0250  plane waves:     356
 k-point ** :  -0.2250 0.2750 0.0250  plane waves:     355
 k-point ** :  -0.1750 0.2750 0.0250  plane waves:     356
 k-point ** :  -0.1250 0.2750 0.0250  plane waves:     351
 k-point ** :  -0.0750 0.2750 0.0250  plane waves:     350
 k-point ** :  -0.0250 0.2750 0.0250  plane waves:     352
 k-point ** :   0.3250 0.3250 0.0250  plane waves:     349
 k-point ** :   0.3750 0.3250 0.0250  plane waves:     351
 k-point ** :   0.4250 0.3250 0.0250  plane waves:     348
 k-point ** :   0.4750 0.3250 0.0250  plane waves:     353
 k-point ** :  -0.4750 0.3250 0.0250  plane waves:     355
 k-point ** :  -0.4250 0.3250 0.0250  plane waves:     361
 k-point ** :  -0.3750 0.3250 0.0250  plane waves:     361
 k-point ** :  -0.3250 0.3250 0.0250  plane waves:     358
 k-point ** :  -0.2750 0.3250 0.0250  plane waves:     359
 k-point ** :  -0.2250 0.3250 0.0250  plane waves:     358
 k-point ** :  -0.1750 0.3250 0.0250  plane waves:     355
 k-point ** :  -0.1250 0.3250 0.0250  plane waves:     354
 k-point ** :  -0.0750 0.3250 0.0250  plane waves:     354
 k-point ** :  -0.0250 0.3250 0.0250  plane waves:     354
 k-point ** :   0.3750 0.3750 0.0250  plane waves:     351
 k-point ** :   0.4250 0.3750 0.0250  plane waves:     350
 k-point ** :   0.4750 0.3750 0.0250  plane waves:     354
 k-point ** :  -0.4750 0.3750 0.0250  plane waves:     358
 k-point ** :  -0.4250 0.3750 0.0250  plane waves:     360
 k-point ** :  -0.3750 0.3750 0.0250  plane waves:     364
 k-point ** :  -0.3250 0.3750 0.0250  plane waves:     360
 k-point ** :  -0.2750 0.3750 0.0250  plane waves:     361
 k-point ** :  -0.2250 0.3750 0.0250  plane waves:     361
 k-point ** :  -0.1750 0.3750 0.0250  plane waves:     356
 k-point ** :  -0.1250 0.3750 0.0250  plane waves:     358
 k-point ** :  -0.0750 0.3750 0.0250  plane waves:     354
 k-point ** :  -0.0250 0.3750 0.0250  plane waves:     356
 k-point ** :   0.4250 0.4250 0.0250  plane waves:     355
 k-point ** :   0.4750 0.4250 0.0250  plane waves:     351
 k-point ** :  -0.4750 0.4250 0.0250  plane waves:     356
 k-point ** :  -0.4250 0.4250 0.0250  plane waves:     359
 k-point ** :  -0.3750 0.4250 0.0250  plane waves:     359
 k-point ** :  -0.3250 0.4250 0.0250  plane waves:     360
 k-point ** :  -0.2750 0.4250 0.0250  plane waves:     360
 k-point ** :  -0.2250 0.4250 0.0250  plane waves:     361
 k-point ** :  -0.1750 0.4250 0.0250  plane waves:     360
 k-point ** :  -0.1250 0.4250 0.0250  plane waves:     360
 k-point ** :  -0.0750 0.4250 0.0250  plane waves:     356
 k-point ** :  -0.0250 0.4250 0.0250  plane waves:     355
 k-point ** :   0.4750 0.4750 0.0250  plane waves:     347
 k-point ** :  -0.4750 0.4750 0.0250  plane waves:     349
 k-point ** :  -0.4250 0.4750 0.0250  plane waves:     355
 k-point ** :  -0.3750 0.4750 0.0250  plane waves:     360
 k-point ** :  -0.3250 0.4750 0.0250  plane waves:     358
 k-point ** :  -0.2750 0.4750 0.0250  plane waves:     359
 k-point ** :  -0.2250 0.4750 0.0250  plane waves:     360
 k-point ** :  -0.1750 0.4750 0.0250  plane waves:     363
 k-point ** :  -0.1250 0.4750 0.0250  plane waves:     360
 k-point ** :  -0.0750 0.4750 0.0250  plane waves:     355
 k-point ** :  -0.0250 0.4750 0.0250  plane waves:     355
 k-point ** :  -0.4750-0.4750 0.0250  plane waves:     347
 k-point ** :  -0.4250-0.4750 0.0250  plane waves:     351
 k-point ** :  -0.3750-0.4750 0.0250  plane waves:     356
 k-point ** :  -0.3250-0.4750 0.0250  plane waves:     354
[...]
 k-point ** :  -0.4250 0.4750 0.3750  plane waves:     360
 k-point ** :  -0.3750 0.4750 0.3750  plane waves:     363
 k-point ** :  -0.4750-0.4750 0.3750  plane waves:     361
 k-point ** :  -0.4250-0.4750 0.3750  plane waves:     361
 k-point ** :  -0.4250-0.4250 0.3750  plane waves:     360
 k-point ** :   0.4250 0.4250 0.4250  plane waves:     356
 k-point ** :   0.4750 0.4250 0.4250  plane waves:     356
 k-point ** :  -0.4750 0.4250 0.4250  plane waves:     359
 k-point ** :  -0.4250 0.4250 0.4250  plane waves:     359
 k-point ** :   0.4750 0.4750 0.4250  plane waves:     356
 k-point ** :  -0.4750 0.4750 0.4250  plane waves:     354
 k-point ** :  -0.4250 0.4750 0.4250  plane waves:     358
 k-point ** :  -0.4750-0.4750 0.4250  plane waves:     357
 k-point ** :   0.4750 0.4750 0.4750  plane waves:     356
 k-point ** :  -0.4750 0.4750 0.4750  plane waves:     354

 maximum and minimum number of plane-waves per node :       366      336

 maximum number of plane-waves:       366
 maximum index in each direction:
   IXMAX=    5   IYMAX=    5   IZMAX=    4
   IXMIN=   -5   IYMIN=   -5   IZMIN=   -5

 serial   3D FFT for wavefunctions
 parallel 3D FFT for charge:
    minimum data exchange during FFTs selected (reduces bandwidth)

 initial charge density was supplied:
 number of electron       7.9999995 magnetization
 keeping initial charge density in first step

 Maximum index for augmentation-charges         3319 (set IRDMAX)

 First call to EWALD:  gamma=   0.515
 Maximum number of real-space cells 3x 3x 3
 Maximum number of reciprocal cells 3x 3x 3

--------------------------------------- Iteration      1(   1)  ---------------------------------------

 eigenvalue-minimisations  : 12416
 total energy-change (2. order) :-0.1284603E+00  (-0.2198862E+03)
 number of electron       7.9999995 magnetization
 augmentation part        7.9999995 magnetization

 Free energy of the ion-electron system (eV)
  alpha Z        PSCENC =         3.18742041
  Ewald energy   TEWEN  =      -227.25055085
  -Hartree energ DENC   =       -15.20290447
  -exchange      EXHF   =         0.00000000
  -V(xc)+E(xc)   XCENC  =       -18.52084166
  PAW double counting   =        74.91473297      -39.56875585
  entropy T*S    EENTRO =        -0.00027491
  eigenvalues    EBANDS =        15.70881504
  atomic energy  EATOM  =       206.60389906
  Solvation  Ediel_sol  =         0.00000000
  free energy    TOTEN  =        -0.12846026 eV

  energy without entropy =       -0.12818535  energy(sigma->0) =       -0.12836862

[...]

--------------------------------------- Iteration      1(   6)  ---------------------------------------

 eigenvalue-minimisations  : 20192
 total energy-change (2. order) :-0.1048079E-08  (-0.1284003E-08)
 number of electron       7.9999995 magnetization
 augmentation part        7.9999995 magnetization

 Free energy of the ion-electron system (eV)
  alpha Z        PSCENC =         3.18742041
  Ewald energy   TEWEN  =      -227.25055085
  -Hartree energ DENC   =       -15.20290447
  -exchange      EXHF   =         0.00000000
  -V(xc)+E(xc)   XCENC  =       -18.52084166
  PAW double counting   =        74.91473297      -39.56875585
  entropy T*S    EENTRO =         0.00040594
  eigenvalues    EBANDS =         4.99652212
  atomic energy  EATOM  =       206.60389906
  Solvation  Ediel_sol  =         0.00000000
  free energy    TOTEN  =       -10.84007233 eV

  energy without entropy =      -10.84047827  energy(sigma->0) =      -10.84020764

 average (electrostatic) potential at core
  the test charge radii are     0.9892
  (the norm of the test charge is              1.0000)
       1 -83.6891       2 -83.6891

 E-fermi :   5.6736     XC(G=0):  -9.3686     alpha+bet :-11.7936

 k-point     1 :       0.0250    0.0250    0.0250
  band No.  band energies     occupation
      1      -6.1930      2.00000
      2       5.5371      1.90736
      3       5.6207      1.43111
      4       5.6207      1.43111
      5       8.2353     -0.00000
      6       8.2353     -0.00000
      7       8.2374     -0.00000
      8       8.8555     -0.00000

[...]

 k-point   770 :      -0.4750    0.4750    0.4750
  band No.  band energies     occupation
      1      -3.8900      2.00000
      2      -1.2292      2.00000
      3       4.1896      2.00000
      4       4.4082      2.00000
      5       7.3541     -0.00000
      6       8.9841     -0.00000
      7       9.1205     -0.00000
      8      13.4659      0.00000

 soft charge-density along one line, spin component           1
         0         1         2         3         4         5         6         7         8         9
 total charge-density along one line

------------------------ aborting loop because EDIFF is reached ----------------------------------------

  FORCE on cell =-STRESS in cart. coord.  units (eV):
  Direction    XX          YY          ZZ          XY          YZ          ZX
  Alpha Z     3.18742     3.18742     3.18742
  Ewald     -75.75022   -75.75022   -75.75022     0.00000     0.00000    -0.00000
  Hartree     5.06751     5.06751     5.06751    -0.00000    -0.00000    -0.00000
  E(xc)     -25.39523   -25.39523   -25.39523     0.00001     0.00001     0.00001
  Local     -29.89560   -29.89560   -29.89560     0.00005     0.00005     0.00005
  n-local    80.70444    75.56086    78.30569    -1.04847     0.00432     1.04553
  augment   -11.79966   -11.79966   -11.79966    -0.00005    -0.00005    -0.00005
  Kinetic    55.88368    55.31436    58.08826    -0.90813     0.00466     0.90529
  Fock        0.00000     0.00000     0.00000     0.00000     0.00000     0.00000
  Total       0.03333     0.03333     0.03333     0.00000     0.00000     0.00000
  in kB       1.31112     1.31112     1.31112     0.00000     0.00000     0.00000

 VOLUME and BASIS-vectors are now :
  energy-cutoff  :      245.44
  volume of cell :       40.72
      direct lattice vectors                 reciprocal lattice vectors
     2.730686319  2.730686319  0.000000000     0.183104151  0.183104151 -0.183104151
     0.000000000  2.730686319  2.730686319    -0.183104151  0.183104151  0.183104151
     2.730686319  0.000000000  2.730686319     0.183104151 -0.183104151  0.183104151

  length of vectors
     3.861773627  3.861773627  3.861773627     0.317145693  0.317145693  0.317145693

 FORCES acting on ions
    electron-ion (+dipol)            ewald-force                    non-local-force                 convergence-correction
   0.761E-06 0.761E-06 0.761E-06   0.146E-16 0.424E-14 -.112E-14   -.139E-16 -.835E-17 -.104E-16   -.174E-08 -.174E-08 -.174E-08
   -.761E-06 -.761E-06 -.761E-06   0.560E-16 -.446E-14 0.889E-15   0.139E-16 0.862E-17 0.694E-17   0.174E-08 0.174E-08 0.174E-08
   -.296E-14 0.905E-14 -.179E-14   0.706E-16 -.224E-15 -.235E-15   0.000E+00 0.271E-18 -.347E-17   -.901E-14 0.625E-14 0.677E-14

 POSITION                                       TOTAL-FORCE (eV/Angst)
      0.00000      0.00000      0.00000        -0.000000     -0.000000     -0.000000
      1.36534      1.36534      1.36534         0.000000      0.000000      0.000000
    total drift:                               -0.000000      0.000000      0.000000

  FREE ENERGIE OF THE ION-ELECTRON SYSTEM (eV)
  free  energy   TOTEN  =       -10.84007233 eV

  energy  without entropy=      -10.84047827  energy(sigma->0) =      -10.84020764

volume of typ            1:    46.5 %

total charge

# of ion       s       p       d       tot
    1        1.036   1.500   0.126   2.661
    2        1.036   1.500   0.126   2.661
tot           2.07    3.00    0.25    5.32

orbital moment (x)

[...]

orbital moment (y)

[...]

orbital moment (z)

# of ion     s             p             d             tot
    1     0.000000E+00 -0.687918E-02 -0.529954E-02 -0.121787E-01
    2     0.000000E+00  0.687918E-02  0.529954E-02  0.121787E-01
tot        0.000000E+00  0.426245E-09  0.323713E-09  0.749957E-09