 vasp.5.4.4.18Apr17-6-g9f103f2a35 (build May 20 2018 16:52:39) complex

 executed on             LinuxIFC date 2022.10.21  20:53:13

 INCAR:
 POTCAR:    PAW Si
 POTCAR:    PAW Si
   VRHFIN =Si: s2p2

   TITEL  = PAW Si
   POMASS =   28.085; ZVAL   =    4.000    mass and valenz
   ENMAX  =  245.435; ENMIN  =  184.076 eV
   QCUT   =   -4.247; QGAM   =    8.494    optimization parameters

   Description
     l     E      TYP  RCUT    TYP  RCUT
     0   .000     23  1.900
     0   .000     23  1.900
     1   .000     23  1.900
     1   .000     23  1.900
     2   .000      7  1.900

  PAW Si                                :

 POSCAR: Si
  positions in direct lattice
  velocities in cartesian coordinates
 exchange correlation table for  LEXCH =        7
   RHO(1)=    0.500       N(1)  =     2000
   RHO(2)=  100.500       N(2)  =     4000

 ion  position               nearest neighbor table
   1  0.000  0.000  0.000-   2 2.36   2 2.36   2 2.36   2 2.36
   2  0.250  0.250  0.250-   1 2.36   1 2.36   1 2.36   1 2.36

  LATTYP: Found a face centered cubic cell.
 ALAT       =     5.4613726379

  Lattice vectors:

 A1 = (   2.7306863189,   2.7306863189,   0.0000000000)
 A2 = (   0.0000000000,   2.7306863189,   2.7306863189)
 A3 = (   2.7306863189,   0.0000000000,   2.7306863189)

Analysis of symmetry for initial positions (statically):
 Subroutine PRICEL returns:
 Original cell was already a primitive cell.

 Routine SETGRP: Setting up the symmetry group for a
 face centered cubic supercell.

 Subroutine GETGRP returns: Found 48 space group operations
 (whereof 24 operations were pure point group operations)
 out of a pool of 48 trial point group operations.

The static configuration has the point symmetry T_d .
 The point group associated with its full space group is O_h .

Analysis of symmetry for dynamics (positions and initial velocities):
 Subroutine PRICEL returns:
 Original cell was already a primitive cell.

 Routine SETGRP: Setting up the symmetry group for a
 face centered cubic supercell.

 Subroutine GETGRP returns: Found 48 space group operations
 (whereof 24 operations were pure point group operations)
 out of a pool of 48 trial point group operations.

The dynamic configuration has the point symmetry T_d .
 The point group associated with its full space group is O_h .

 Subroutine INISYM returns: Found 48 space group operations
 (whereof 24 operations are pure point group operations),
 and found     1 'primitive' translations

 KPOINTS: 10x10x10

Automatic generation of k-mesh.
Space group operators:
 irot       det(A)        alpha          n_x          n_y          n_z        tau_x        tau_y        tau_z
    1     1.000000     0.000000     1.000000     0.000000     0.000000     0.000000     0.000000     0.000000
    2     1.000000   120.000000    -0.577350    -0.577350    -0.577350     0.000000     0.000000     0.000000
    3     1.000000   120.000000     0.577350     0.577350     0.577350     0.000000     0.000000     0.000000
    4    -1.000000    90.000000     0.000000    -1.000000     0.000000     0.000000     0.000000     0.000000
    5    -1.000000   180.000000     0.707107     0.707107     0.000000     0.000000     0.000000     0.000000
    6    -1.000000    90.000000     1.000000     0.000000     0.000000     0.000000     0.000000     0.000000
    7     1.000000   180.000000     0.000000     1.000000     0.000000     0.000000     0.000000     0.000000
    8     1.000000   120.000000     0.577350     0.577350    -0.577350     0.000000     0.000000     0.000000
    9     1.000000   120.000000     0.577350    -0.577350    -0.577350     0.000000     0.000000     0.000000
   10    -1.000000    90.000000     0.000000     1.000000     0.000000     0.000000     0.000000     0.000000
   11    -1.000000    90.000000     0.000000     0.000000    -1.000000     0.000000     0.000000     0.000000
   12    -1.000000   180.000000     0.000000     0.707107     0.707107     0.000000     0.000000     0.000000
   13     1.000000   120.000000    -0.577350     0.577350     0.577350     0.000000     0.000000     0.000000
   14     1.000000   120.000000    -0.577350     0.577350    -0.577350     0.000000     0.000000     0.000000
   15     1.000000   180.000000     0.000000     0.000000     1.000000     0.000000     0.000000     0.000000
   16    -1.000000    90.000000    -1.000000     0.000000     0.000000     0.000000     0.000000     0.000000
   17    -1.000000   180.000000     0.707107     0.000000     0.707107     0.000000     0.000000     0.000000
   18    -1.000000    90.000000     0.000000     0.000000     1.000000     0.000000     0.000000     0.000000
   19     1.000000   120.000000    -0.577350    -0.577350     0.577350     0.000000     0.000000     0.000000
   20     1.000000   180.000000     1.000000     0.000000     0.000000     0.000000     0.000000     0.000000
   21     1.000000   120.000000     0.577350    -0.577350     0.577350     0.000000     0.000000     0.000000
   22    -1.000000   180.000000     0.707107    -0.707107     0.000000     0.000000     0.000000     0.000000
   23    -1.000000   180.000000     0.707107     0.000000    -0.707107     0.000000     0.000000     0.000000
   24    -1.000000   180.000000     0.000000    -0.707107     0.707107     0.000000     0.000000     0.000000
   25    -1.000000     0.000000     1.000000     0.000000     0.000000     0.250000     0.250000     0.250000
   26    -1.000000   120.000000    -0.577350    -0.577350    -0.577350     0.250000     0.250000     0.250000
   27    -1.000000   120.000000     0.577350     0.577350     0.577350     0.250000     0.250000     0.250000
   28     1.000000    90.000000     0.000000    -1.000000     0.000000     0.250000     0.250000     0.250000
   29     1.000000   180.000000     0.707107     0.707107     0.000000     0.250000     0.250000     0.250000
   30     1.000000    90.000000     1.000000     0.000000     0.000000     0.250000     0.250000     0.250000
   31    -1.000000   180.000000     0.000000     1.000000     0.000000     0.250000     0.250000     0.250000
   32    -1.000000   120.000000     0.577350     0.577350    -0.577350     0.250000     0.250000     0.250000
   33    -1.000000   120.000000     0.577350    -0.577350    -0.577350     0.250000     0.250000     0.250000
   34     1.000000    90.000000     0.000000     1.000000     0.000000     0.250000     0.250000     0.250000
   35     1.000000    90.000000     0.000000     0.000000    -1.000000     0.250000     0.250000     0.250000
   36     1.000000   180.000000     0.000000     0.707107     0.707107     0.250000     0.250000     0.250000
   37    -1.000000   120.000000    -0.577350     0.577350     0.577350     0.250000     0.250000     0.250000
   38    -1.000000   120.000000    -0.577350     0.577350    -0.577350     0.250000     0.250000     0.250000
   39    -1.000000   180.000000     0.000000     0.000000     1.000000     0.250000     0.250000     0.250000
   40     1.000000    90.000000    -1.000000     0.000000     0.000000     0.250000     0.250000     0.250000
   41     1.000000   180.000000     0.707107     0.000000     0.707107     0.250000     0.250000     0.250000
   42     1.000000    90.000000     0.000000     0.000000     1.000000     0.250000     0.250000     0.250000
   43    -1.000000   120.000000    -0.577350    -0.577350     0.577350     0.250000     0.250000     0.250000
   44    -1.000000   180.000000     1.000000     0.000000     0.000000     0.250000     0.250000     0.250000
   45    -1.000000   120.000000     0.577350    -0.577350     0.577350     0.250000     0.250000     0.250000
   46     1.000000   180.000000     0.707107    -0.707107     0.000000     0.250000     0.250000     0.250000
   47     1.000000   180.000000     0.707107     0.000000    -0.707107     0.250000     0.250000     0.250000
   48     1.000000   180.000000     0.000000    -0.707107     0.707107     0.250000     0.250000     0.250000

 Subroutine IBZKPT returns following result:

 Found    110 irreducible k-points:

 Following reciprocal coordinates:
            Coordinates               Weight
  0.050000  0.050000  0.050000     96.000000
  0.150000  0.050000  0.050000    288.000000
  0.250000  0.050000  0.050000    288.000000
  0.350000  0.050000  0.050000    288.000000
  0.450000  0.050000  0.050000    288.000000
 -0.450000  0.050000  0.050000    288.000000
 -0.350000  0.050000  0.050000    288.000000
 -0.250000  0.050000  0.050000    288.000000
 -0.150000  0.050000  0.050000    288.000000
 -0.050000  0.050000  0.050000    288.000000
  0.150000  0.150000  0.050000    288.000000
  0.250000  0.150000  0.050000    576.000000
  0.350000  0.150000  0.050000    576.000000
  0.450000  0.150000  0.050000    576.000000
 -0.450000  0.150000  0.050000    576.000000
 -0.350000  0.150000  0.050000    576.000000
 -0.250000  0.150000  0.050000    576.000000
 -0.150000  0.150000  0.050000    576.000000
 -0.050000  0.150000  0.050000    576.000000
  0.250000  0.250000  0.050000    288.000000
  0.350000  0.250000  0.050000    576.000000
  0.450000  0.250000  0.050000    576.000000
 -0.450000  0.250000  0.050000    576.000000
 -0.350000  0.250000  0.050000    576.000000
 -0.250000  0.250000  0.050000    576.000000
 -0.150000  0.250000  0.050000    576.000000
 -0.050000  0.250000  0.050000    576.000000
  0.350000  0.350000  0.050000    288.000000
  0.450000  0.350000  0.050000    576.000000
 -0.450000  0.350000  0.050000    576.000000
 -0.350000  0.350000  0.050000    576.000000
 -0.250000  0.350000  0.050000    576.000000
 -0.150000  0.350000  0.050000    576.000000
 -0.050000  0.350000  0.050000    576.000000
  0.450000  0.450000  0.050000    288.000000
 -0.450000  0.450000  0.050000    576.000000
 -0.350000  0.450000  0.050000    576.000000
 -0.250000  0.450000  0.050000    576.000000
 -0.150000  0.450000  0.050000    576.000000
 -0.050000  0.450000  0.050000    576.000000
 -0.450000 -0.450000  0.050000    288.000000
 -0.350000 -0.450000  0.050000    576.000000
 -0.250000 -0.450000  0.050000    576.000000
 -0.150000 -0.450000  0.050000    576.000000
 -0.350000 -0.350000  0.050000    288.000000
 -0.250000 -0.350000  0.050000    576.000000
 -0.150000 -0.350000  0.050000    576.000000
 -0.250000 -0.250000  0.050000    288.000000
 -0.150000 -0.250000  0.050000    576.000000
 -0.150000 -0.150000  0.050000    288.000000
  0.150000  0.150000  0.150000     96.000000
  0.250000  0.150000  0.150000    288.000000
  0.350000  0.150000  0.150000    288.000000
  0.450000  0.150000  0.150000    288.000000
 -0.450000  0.150000  0.150000    288.000000
 -0.350000  0.150000  0.150000    288.000000
 -0.250000  0.150000  0.150000    288.000000
 -0.150000  0.150000  0.150000    288.000000
  0.250000  0.250000  0.150000    288.000000
  0.350000  0.250000  0.150000    576.000000
[...]
 -0.350000  0.450000  0.250000    576.000000
 -0.250000  0.450000  0.250000    576.000000
 -0.450000 -0.450000  0.250000    288.000000
 -0.350000 -0.450000  0.250000    576.000000
 -0.350000 -0.350000  0.250000    288.000000
  0.350000  0.350000  0.350000     96.000000
  0.450000  0.350000  0.350000    288.000000
 -0.450000  0.350000  0.350000    288.000000
[...]
  -0.35000000  0.15000000  0.05000000       0.012
  -0.25000000  0.15000000  0.05000000       0.012
  -0.15000000  0.15000000  0.05000000       0.012
  -0.05000000  0.15000000  0.05000000       0.012
   0.25000000  0.25000000  0.05000000       0.006
   0.35000000  0.25000000  0.05000000       0.012
   0.45000000  0.25000000  0.05000000       0.012
  -0.45000000  0.25000000  0.05000000       0.012
  -0.35000000  0.25000000  0.05000000       0.012
  -0.25000000  0.25000000  0.05000000       0.012
  -0.15000000  0.25000000  0.05000000       0.012
  -0.05000000  0.25000000  0.05000000       0.012
   0.35000000  0.35000000  0.05000000       0.006
   0.45000000  0.35000000  0.05000000       0.012
  -0.45000000  0.35000000  0.05000000       0.012
  -0.35000000  0.35000000  0.05000000       0.012
  -0.25000000  0.35000000  0.05000000       0.012
  -0.15000000  0.35000000  0.05000000       0.012
  -0.05000000  0.35000000  0.05000000       0.012
   0.45000000  0.45000000  0.05000000       0.006
  -0.45000000  0.45000000  0.05000000       0.012
  -0.35000000  0.45000000  0.05000000       0.012
  -0.25000000  0.45000000  0.05000000       0.012
  -0.15000000  0.45000000  0.05000000       0.012
  -0.05000000  0.45000000  0.05000000       0.012
  -0.45000000 -0.45000000  0.05000000       0.006
  -0.35000000 -0.45000000  0.05000000       0.012
  -0.25000000 -0.45000000  0.05000000       0.012
  -0.15000000 -0.45000000  0.05000000       0.012
  -0.35000000 -0.35000000  0.05000000       0.006
  -0.25000000 -0.35000000  0.05000000       0.012
  -0.15000000 -0.35000000  0.05000000       0.012
  -0.25000000 -0.25000000  0.05000000       0.006
  -0.15000000 -0.25000000  0.05000000       0.012
  -0.15000000 -0.15000000  0.05000000       0.006
   0.15000000  0.15000000  0.15000000       0.002
   0.25000000  0.15000000  0.15000000       0.006
   0.35000000  0.15000000  0.15000000       0.006
   0.45000000  0.15000000  0.15000000       0.006
  -0.45000000  0.15000000  0.15000000       0.006
  -0.35000000  0.15000000  0.15000000       0.006
  -0.25000000  0.15000000  0.15000000       0.006
  -0.15000000  0.15000000  0.15000000       0.006
   0.25000000  0.25000000  0.15000000       0.006
   0.35000000  0.25000000  0.15000000       0.012
[...]
  -0.35000000  0.45000000  0.25000000       0.012
  -0.25000000  0.45000000  0.25000000       0.012
  -0.45000000 -0.45000000  0.25000000       0.006
  -0.35000000 -0.45000000  0.25000000       0.012
  -0.35000000 -0.35000000  0.25000000       0.006
   0.35000000  0.35000000  0.35000000       0.002
   0.45000000  0.35000000  0.35000000       0.006
  -0.45000000  0.35000000  0.35000000       0.006
  -0.35000000  0.35000000  0.35000000       0.006
   0.45000000  0.45000000  0.35000000       0.006
  -0.45000000  0.45000000  0.35000000       0.012
  -0.35000000  0.45000000  0.35000000       0.012
  -0.45000000 -0.45000000  0.35000000       0.006
   0.45000000  0.45000000  0.45000000       0.002
  -0.45000000  0.45000000  0.45000000       0.006

 position of ions in fractional coordinates (direct lattice)
   0.00000000  0.00000000  0.00000000
   0.25000000  0.25000000  0.25000000

 position of ions in cartesian coordinates  (Angst):
   0.00000000  0.00000000  0.00000000
   1.36534316  1.36534316  1.36534316

 k-point  1 :   0.0500 0.0500 0.0500  plane waves:     338
 k-point  2 :   0.1500 0.0500 0.0500  plane waves:     341
 k-point  3 :   0.2500 0.0500 0.0500  plane waves:     354
 k-point  4 :   0.3500 0.0500 0.0500  plane waves:     352
 k-point  5 :   0.4500 0.0500 0.0500  plane waves:     354
 k-point  6 :  -0.4500 0.0500 0.0500  plane waves:     354
 k-point  7 :  -0.3500 0.0500 0.0500  plane waves:     355
 k-point  8 :  -0.2500 0.0500 0.0500  plane waves:     351
 k-point  9 :  -0.1500 0.0500 0.0500  plane waves:     352
 k-point 10 :  -0.0500 0.0500 0.0500  plane waves:     336
 k-point 11 :   0.1500 0.1500 0.0500  plane waves:     345
 k-point 12 :   0.2500 0.1500 0.0500  plane waves:     350
 k-point 13 :   0.3500 0.1500 0.0500  plane waves:     350
 k-point 14 :   0.4500 0.1500 0.0500  plane waves:     355
 k-point 15 :  -0.4500 0.1500 0.0500  plane waves:     358
 k-point 16 :  -0.3500 0.1500 0.0500  plane waves:     358
 k-point 17 :  -0.2500 0.1500 0.0500  plane waves:     352
 k-point 18 :  -0.1500 0.1500 0.0500  plane waves:     352
 k-point 19 :  -0.0500 0.1500 0.0500  plane waves:     349
 k-point 20 :   0.2500 0.2500 0.0500  plane waves:     349
 k-point 21 :   0.3500 0.2500 0.0500  plane waves:     352
 k-point 22 :   0.4500 0.2500 0.0500  plane waves:     351
 k-point 23 :  -0.4500 0.2500 0.0500  plane waves:     361
 k-point 24 :  -0.3500 0.2500 0.0500  plane waves:     361
 k-point 25 :  -0.2500 0.2500 0.0500  plane waves:     354
 k-point 26 :  -0.1500 0.2500 0.0500  plane waves:     354
 k-point 27 :  -0.0500 0.2500 0.0500  plane waves:     351
 k-point 28 :   0.3500 0.3500 0.0500  plane waves:     351
 k-point 29 :   0.4500 0.3500 0.0500  plane waves:     351
 k-point 30 :  -0.4500 0.3500 0.0500  plane waves:     355
 k-point 31 :  -0.3500 0.3500 0.0500  plane waves:     363
 k-point 32 :  -0.2500 0.3500 0.0500  plane waves:     359
 k-point 33 :  -0.1500 0.3500 0.0500  plane waves:     356
 k-point 34 :  -0.0500 0.3500 0.0500  plane waves:     354
 k-point 35 :   0.4500 0.4500 0.0500  plane waves:     353
 k-point 36 :  -0.4500 0.4500 0.0500  plane waves:     356
 k-point 37 :  -0.3500 0.4500 0.0500  plane waves:     361
 k-point 38 :  -0.2500 0.4500 0.0500  plane waves:     360
 k-point 39 :  -0.1500 0.4500 0.0500  plane waves:     361
 k-point 40 :  -0.0500 0.4500 0.0500  plane waves:     356
 k-point 41 :  -0.4500-0.4500 0.0500  plane waves:     349
 k-point 42 :  -0.3500-0.4500 0.0500  plane waves:     356
 k-point 43 :  -0.2500-0.4500 0.0500  plane waves:     354
 k-point 44 :  -0.1500-0.4500 0.0500  plane waves:     359
 k-point 45 :  -0.3500-0.3500 0.0500  plane waves:     351
 k-point 46 :  -0.2500-0.3500 0.0500  plane waves:     349
 k-point 47 :  -0.1500-0.3500 0.0500  plane waves:     352
 k-point 48 :  -0.2500-0.2500 0.0500  plane waves:     348
 k-point 49 :  -0.1500-0.2500 0.0500  plane waves:     351
 k-point 50 :  -0.1500-0.1500 0.0500  plane waves:     350
 k-point 51 :   0.1500 0.1500 0.1500  plane waves:     344
 k-point 52 :   0.2500 0.1500 0.1500  plane waves:     355
 k-point 53 :   0.3500 0.1500 0.1500  plane waves:     353
 k-point 54 :   0.4500 0.1500 0.1500  plane waves:     356
 k-point 55 :  -0.4500 0.1500 0.1500  plane waves:     361
 k-point 56 :  -0.3500 0.1500 0.1500  plane waves:     358
 k-point 57 :  -0.2500 0.1500 0.1500  plane waves:     354
 k-point 58 :  -0.1500 0.1500 0.1500  plane waves:     354
 k-point 59 :   0.2500 0.2500 0.1500  plane waves:     352
 k-point 60 :   0.3500 0.2500 0.1500  plane waves:     348
[...]
 k-point 85 :   0.4500 0.2500 0.2500  plane waves:     356
 k-point 86 :  -0.4500 0.2500 0.2500  plane waves:     355
 k-point 87 :  -0.3500 0.2500 0.2500  plane waves:     363
 k-point 88 :  -0.2500 0.2500 0.2500  plane waves:     354
 k-point 89 :   0.3500 0.3500 0.2500  plane waves:     351
 k-point 90 :   0.4500 0.3500 0.2500  plane waves:     354
 k-point 91 :  -0.4500 0.3500 0.2500  plane waves:     358
 k-point 92 :  -0.3500 0.3500 0.2500  plane waves:     364
 k-point 93 :  -0.2500 0.3500 0.2500  plane waves:     360
 k-point 94 :   0.4500 0.4500 0.2500  plane waves:     354
 k-point 95 :  -0.4500 0.4500 0.2500  plane waves:     361
 k-point 96 :  -0.3500 0.4500 0.2500  plane waves:     363
 k-point 97 :  -0.2500 0.4500 0.2500  plane waves:     366
 k-point 98 :  -0.4500-0.4500 0.2500  plane waves:     359
 k-point 99 :  -0.3500-0.4500 0.2500  plane waves:     361
 k-point ** :  -0.3500-0.3500 0.2500  plane waves:     362
 k-point ** :   0.3500 0.3500 0.3500  plane waves:     359
 k-point ** :   0.4500 0.3500 0.3500  plane waves:     356
 k-point ** :  -0.4500 0.3500 0.3500  plane waves:     356
 k-point ** :  -0.3500 0.3500 0.3500  plane waves:     360
 k-point ** :   0.4500 0.4500 0.3500  plane waves:     357
 k-point ** :  -0.4500 0.4500 0.3500  plane waves:     360
 k-point ** :  -0.3500 0.4500 0.3500  plane waves:     362
 k-point ** :  -0.4500-0.4500 0.3500  plane waves:     363
 k-point ** :   0.4500 0.4500 0.4500  plane waves:     356
 k-point ** :  -0.4500 0.4500 0.4500  plane waves:     355

 maximum and minimum number of plane-waves per node :       366      336

 maximum number of plane-waves:       366
 maximum index in each direction:
   IXMAX=    5   IYMAX=    5   IZMAX=    4
   IXMIN=   -5   IYMIN=   -5   IZMIN=   -5

 serial   3D FFT for wavefunctions
 parallel 3D FFT for charge:
    minimum data exchange during FFTs selected (reduces bandwidth)

 Broyden mixing: mesh for mixing (old mesh)
   NGX =  9   NGY =  9   NGZ =  9
  (NGX  = 32   NGY  = 32   NGZ  = 32)
  gives a total of    729 points

 initial charge density was supplied:
 charge density of overlapping atoms calculated
 number of electron       8.0000000 magnetization
 keeping initial charge density in first step

 Maximum index for augmentation-charges         3319 (set IRDMAX)

 First call to EWALD:  gamma=   0.515
 Maximum number of real-space cells 3x 3x 3
 Maximum number of reciprocal cells 3x 3x 3

--------------------------------------- Iteration      1(   1)  ---------------------------------------

 BZINTS: Fermi energy:  8.515581;  8.000000 electrons
         Band energy:  12.518379;  BLOECHL correction: -0.126489

 eigenvalue-minimisations  :  1760
 total energy-change (2. order) : 0.1004751E+00  (-0.2211567E+03)
 number of electron       8.0000000 magnetization
 augmentation part        8.0000000 magnetization

 Free energy of the ion-electron system (eV)
  alpha Z        PSCENC =         3.18742041
  Ewald energy   TEWEN  =      -227.25055085
  -Hartree energ DENC   =       -11.33656476
  -exchange      EXHF   =         0.00000000
  -V(xc)+E(xc)   XCENC  =       -19.18151600
  PAW double counting   =        66.48363344      -30.92422537
  entropy T*S    EENTRO =         0.00000000
  eigenvalues    EBANDS =        12.51837912
  atomic energy  EATOM  =       206.60389906
  Solvation  Ediel_sol  =         0.00000000
  free energy    TOTEN  =         0.10047505 eV

  energy without entropy =        0.10047505  energy(sigma->0) =        0.10047505

[...]

 eigenvalue-minimisations  :  2760
 total energy-change (2. order) :-0.1098663E+02  (-0.1075515E+02)
 number of electron       8.0000000 magnetization
 augmentation part        8.0000000 magnetization

[...]

 Broyden mixing:
  rms(total) = 0.29594E+00    rms(broyden)= 0.29590E+00
  rms(prec ) = 0.85615E+00
  weight for this iteration     100.00

[...]

 eigenvalues of (default mixing * dielectric matrix)
  average eigenvalue GAMMA=   2.4553
  2.4553

[...]

 eigenvalue-minimisations  :  1984
 total energy-change (2. order) :-0.1472268E-04  (-0.1942203E-05)
 number of electron       7.9999995 magnetization
 augmentation part       -0.4638640 magnetization

 Broyden mixing:
  rms(total) = 0.14667E-03    rms(broyden)= 0.14647E-03
  rms(prec ) = 0.35806E-03
  weight for this iteration     100.00

 eigenvalues of (default mixing * dielectric matrix)
  average eigenvalue GAMMA=   1.9814
  3.0726  2.6017  2.1817  0.9886  1.0627

[...]

--------------------------------------- Iteration      1(  11)  ---------------------------------------

[...]

 eigenvalue-minimisations  :  2016
 total energy-change (2. order) : 0.4782152E-06  (-0.2689336E-07)
 number of electron       7.9999995 magnetization
 augmentation part       -0.4638640 magnetization

 Free energy of the ion-electron system (eV)
  alpha Z        PSCENC =         3.18742041
  Ewald energy   TEWEN  =      -227.25055085
  -Hartree energ DENC   =       -15.20253224
  -exchange      EXHF   =         0.00000000
  -V(xc)+E(xc)   XCENC  =       -18.52087732
  PAW double counting   =        74.91258659      -39.56664923
  entropy T*S    EENTRO =         0.00000000
  eigenvalues    EBANDS =         4.99645668
  atomic energy  EATOM  =       206.60389906
  Solvation  Ediel_sol  =         0.00000000
  free energy    TOTEN  =       -10.84024690 eV

  energy without entropy =      -10.84024690  energy(sigma->0) =      -10.84024690

 average (electrostatic) potential at core
  the test charge radii are     0.9892
  (the norm of the test charge is              1.0000)
       1 -83.6893       2 -83.6893

 E-fermi :   5.6484     XC(G=0):  -9.3686     alpha+bet :-11.7936

 k-point     1 :       0.0500    0.0500    0.0500
  band No.  band energies     occupation
      1      -6.1688      2.00000
      2       5.2773      2.00000
      3       5.5807      2.00000
      4       5.5807      2.00000
      5       8.2595      0.00000
      6       8.2942      0.00000
      7       8.2942      0.00000
      8       9.0521      0.00000

[...]

 k-point   110 :      -0.4500    0.4500    0.4500
  band No.  band energies     occupation
      1      -3.8160      2.00000
      2      -1.1722      2.00000
      3       3.5986      2.00000
      4       4.2904      2.00000
      5       7.7610      0.00000
      6       9.0191      0.00000
      7       9.4150      0.00000
      8      13.7222      0.00000

 soft charge-density along one line, spin component           1
         0         1         2         3         4         5         6         7         8         9
 total charge-density along one line

------------------------ aborting loop because EDIFF is reached ----------------------------------------

  FORCE on cell =-STRESS in cart. coord.  units (eV):
  Direction    XX          YY          ZZ          XY          YZ          ZX
  Alpha Z     3.18742     3.18742     3.18742
  Ewald     -75.75022   -75.75022   -75.75022     0.00000     0.00000    -0.00000
  Hartree     5.06761     5.06761     5.06761    -0.00000    -0.00000    -0.00000
  E(xc)     -25.39516   -25.39516   -25.39516     0.00001     0.00001     0.00001
  Local     -29.89578   -29.89578   -29.89578     0.00005     0.00005     0.00005
  n-local    80.67034    75.72108    78.17963    -1.11464     0.02697     1.07756
  augment   -11.79968   -11.79968   -11.79968    -0.00005    -0.00005    -0.00005
  Kinetic    55.90869    55.38750    57.99153    -0.90038     0.02765     0.86210
  Fock        0.00000     0.00000     0.00000     0.00000     0.00000     0.00000
  Total       0.03379     0.03379     0.03379     0.00000    -0.00000     0.00000
  in kB       1.32923     1.32923     1.32923     0.00000    -0.00000     0.00000

 VOLUME and BASIS-vectors are now :
  energy-cutoff  :      245.44
  volume of cell :       40.72
      direct lattice vectors                 reciprocal lattice vectors
     2.730686319  2.730686319  0.000000000     0.183104151  0.183104151 -0.183104151
     0.000000000  2.730686319  2.730686319    -0.183104151  0.183104151  0.183104151
     2.730686319  0.000000000  2.730686319     0.183104151 -0.183104151  0.183104151

  length of vectors
     3.861773627  3.861773627  3.861773627     0.317145693  0.317145693  0.317145693

 FORCES acting on ions
    electron-ion (+dipol)            ewald-force                    non-local-force                 convergence-correction
   0.759E-06 0.759E-06 0.759E-06   0.146E-16 0.424E-14 -.112E-14   -.416E-16 -.338E-16 -.382E-16   0.262E-06 0.262E-06 0.262E-06
   -.759E-06 -.759E-06 -.759E-06   0.560E-16 -.446E-14 0.889E-15   0.416E-16 0.384E-16 0.382E-16   -.262E-06 -.262E-06 -.262E-06
   -.506E-14 0.308E-15 0.532E-14   0.706E-16 -.224E-15 -.235E-15   0.000E+00 0.455E-17 0.000E+00   -.118E-14 -.794E-15 -.718E-15

 POSITION                                       TOTAL-FORCE (eV/Angst)
      0.00000      0.00000      0.00000        -0.000000     -0.000000      0.000000
      1.36534      1.36534      1.36534         0.000000      0.000000     -0.000000
    total drift:                               -0.000000     -0.000000      0.000000

  FREE ENERGIE OF THE ION-ELECTRON SYSTEM (eV)
  free  energy   TOTEN  =       -10.84024690 eV

  energy  without entropy=      -10.84024690  energy(sigma->0) =      -10.84024690

volume of typ            1:    46.5 %

total charge

# of ion       s       p       d       tot
    1        1.036   1.500   0.126   2.661
    2        1.036   1.500   0.126   2.661
tot           2.07    3.00    0.25    5.32

orbital moment (x)

[...]

orbital moment (y)

[...]

orbital moment (z)

# of ion     s             p             d             tot
    1     0.000000E+00  0.414340E-03 -0.305644E-02 -0.264210E-02
    2     0.000000E+00 -0.414344E-03  0.305644E-02  0.264209E-02
tot        0.000000E+00 -0.330227E-08  0.894263E-10 -0.321284E-08

 BZINTS: Fermi energy:  5.648417;  8.000000 electrons
         Band energy:   4.996457;  BLOECHL correction:  0.000000