 vasp.5.3.5 31Mar14 (build Aug 31 2014 21:42:44) complex

 executed on             LinuxIFC date 2020.11.02  12:10:56

 INCAR:
 POTCAR:    PAW W

 POTCAR:    PAW W
   VRHFIN =W: 5p6s5d

   TITEL  = PAW W
   POMASS =  183.850; ZVAL   =    6.000    mass and valenz
   ENMAX  =  223.126; ENMIN  =  167.344 eV
   QCUT   =   -4.050; QGAM   =    8.099    optimization parameters

   Description
     l     E      TYP  RCUT    TYP  RCUT
     2   .000     23  2.500
     2   .000     23  2.500
     0   .000     23  2.500
     0   .000     23  2.500
     1   .200     23  2.750
     1  2.000     23  2.750
     3   .000      7   .000

  PAW W                                 :

 POSCAR: BCC W Bulk
  positions in direct lattice
  velocities in cartesian coordinates
 exchange correlation table for  LEXCH =        2
   RHO(1)=    0.500       N(1)  =     2000
   RHO(2)=  100.500       N(2)  =     4000

 ion  position               nearest neighbor table
   1  0.000  0.000  0.951-   2 2.83   2 2.83   2 2.83   2 2.83
   2  0.500  0.500  0.025-   1 2.83   1 2.83   1 2.83   1 2.83   3 2.84   3 2.84   3 2.84   3 2.84

   3  0.000  0.000  0.100-   4 2.84   4 2.84   4 2.84   4 2.84   2 2.84   2 2.84   2 2.84   2 2.84

[...]

   5  0.000  0.000  0.249-   4 2.83   4 2.83   4 2.83   4 2.83

  LATTYP: Found a simple tetragonal cell.
 ALAT       =     2.7600000000
 C/A-ratio  =    10.0000000000

  Lattice vectors:

 A1 = (   2.7600000000,   0.0000000000,   0.0000000000)
 A2 = (   0.0000000000,   2.7600000000,   0.0000000000)
 A3 = (   0.0000000000,   0.0000000000,  27.6000000000)

Analysis of symmetry for initial positions (statically):
 Subroutine PRICEL returns:
 Original cell was already a primitive cell.

 Routine SETGRP: Setting up the symmetry group for a
 simple tetragonal supercell.

 Subroutine GETGRP returns: Found 16 space group operations
 (whereof  8 operations were pure point group operations)
 out of a pool of 16 trial point group operations.

The static configuration has the point symmetry C_4v.
 The point group associated with its full space group is D_4h.

Analysis of symmetry for dynamics (positions and initial velocities):
 Subroutine PRICEL returns:
 Original cell was already a primitive cell.

 Routine SETGRP: Setting up the symmetry group for a
 simple tetragonal supercell.

 Subroutine GETGRP returns: Found 16 space group operations
 (whereof  8 operations were pure point group operations)
 out of a pool of 16 trial point group operations.

The dynamic configuration has the point symmetry C_4v.
 The point group associated with its full space group is D_4h.

 KPOINTS: 10 x10x10

Automatic generation of k-mesh.
Space group operators:
 irot       det(A)        alpha          n_x          n_y          n_z        tau_x        tau_y        tau_z
    1     1.000000     0.000000     1.000000     0.000000     0.000000     0.000000     0.000000     0.000000
    2     1.000000    90.000000     0.000000     0.000000    -1.000000     0.000000     0.000000     0.000000
    3     1.000000   180.000000     0.000000     0.000000     1.000000     0.000000     0.000000     0.000000
    4     1.000000    90.000000     0.000000     0.000000     1.000000     0.000000     0.000000     0.000000
    5    -1.000000   180.000000     0.000000     1.000000     0.000000     0.000000     0.000000     0.000000
    6    -1.000000   180.000000     0.707107     0.707107     0.000000     0.000000     0.000000     0.000000
    7    -1.000000   180.000000     1.000000     0.000000     0.000000     0.000000     0.000000     0.000000
    8    -1.000000   180.000000     0.707107    -0.707107     0.000000     0.000000     0.000000     0.000000
    9    -1.000000     0.000000     1.000000     0.000000     0.000000     0.000000     0.000000     0.200000
   10    -1.000000    90.000000     0.000000     0.000000    -1.000000     0.000000     0.000000     0.200000
   11    -1.000000   180.000000     0.000000     0.000000     1.000000     0.000000     0.000000     0.200000
   12    -1.000000    90.000000     0.000000     0.000000     1.000000     0.000000     0.000000     0.200000
   13     1.000000   180.000000     0.000000     1.000000     0.000000     0.000000     0.000000     0.200000
   14     1.000000   180.000000     0.707107     0.707107     0.000000     0.000000     0.000000     0.200000
   15     1.000000   180.000000     1.000000     0.000000     0.000000     0.000000     0.000000     0.200000
   16     1.000000   180.000000     0.707107    -0.707107     0.000000     0.000000     0.000000     0.200000

 Subroutine IBZKPT returns following result:

 Found     21 irreducible k-points:

 Following reciprocal coordinates:
            Coordinates               Weight
  0.000000  0.000000  0.000000      1.000000
  0.090909  0.000000  0.000000      4.000000
  0.181818  0.000000  0.000000      4.000000
  0.272727  0.000000  0.000000      4.000000
  0.363636  0.000000  0.000000      4.000000
  0.454545  0.000000  0.000000      4.000000
  0.090909  0.090909  0.000000      4.000000
  0.181818  0.090909  0.000000      8.000000
  0.272727  0.090909  0.000000      8.000000
  0.363636  0.090909  0.000000      8.000000
  0.454545  0.090909  0.000000      8.000000
  0.181818  0.181818  0.000000      4.000000
  0.272727  0.181818  0.000000      8.000000
  0.363636  0.181818  0.000000      8.000000
  0.454545  0.181818  0.000000      8.000000
  0.272727  0.272727  0.000000      4.000000
  0.363636  0.272727  0.000000      8.000000
  0.454545  0.272727  0.000000      8.000000
  0.363636  0.363636  0.000000      4.000000
  0.454545  0.363636  0.000000      8.000000
  0.454545  0.454545  0.000000      4.000000

 Following cartesian coordinates:
            Coordinates               Weight
  0.000000  0.000000  0.000000      1.000000
  0.090909  0.000000  0.000000      4.000000
  0.181818  0.000000  0.000000      4.000000
  0.272727  0.000000  0.000000      4.000000
  0.363636  0.000000  0.000000      4.000000
  0.454545  0.000000  0.000000      4.000000
  0.090909  0.090909  0.000000      4.000000
  0.181818  0.090909  0.000000      8.000000
  0.272727  0.090909  0.000000      8.000000
  0.363636  0.090909  0.000000      8.000000
  0.454545  0.090909  0.000000      8.000000
  0.181818  0.181818  0.000000      4.000000
  0.272727  0.181818  0.000000      8.000000
  0.363636  0.181818  0.000000      8.000000
  0.454545  0.181818  0.000000      8.000000
  0.272727  0.272727  0.000000      4.000000
  0.363636  0.272727  0.000000      8.000000
  0.454545  0.272727  0.000000      8.000000
  0.363636  0.363636  0.000000      4.000000
  0.454545  0.363636  0.000000      8.000000
  0.454545  0.454545  0.000000      4.000000

 TETIRR: Found    169 inequivalent tetrahedra from      726

 I would recommend the setting:
   dimension x,y,z NGX =    12 NGY =   12 NGZ =  117
 SYSTEM =  unknown system
 POSCAR =  BCC W Bulk

 Startparameter for this run:
   NWRITE =      2    write-flag & timer
   PREC   = normal    normal or accurate (medium, high low for compatibility)
   ISTART =      1    job   : 0-new  1-cont  2-samecut
   ICHARG =      0    charge: 1-file 2-atom 10-const
   ISPIN  =      1    spin polarized calculation?
   LNONCOLLINEAR =      F non collinear calculations
   LSORBIT =      F    spin-orbit coupling
   INIWAV =      1    electr: 0-lowe 1-rand  2-diag
   LASPH  =      F    aspherical Exc in radial PAW
   METAGGA=      F    non-selfconsistent MetaGGA calc.

 Electronic Relaxation 1
   ENCUT  =  300.0 eV  22.05 Ry    4.70 a.u.   3.90  3.90 38.98*2*pi/ulx,y,z
   ENINI  =  300.0     initial cutoff
   ENAUG  =  373.4 eV  augmentation charge cutoff
   NELM   =     60;   NELMIN=  2; NELMDL=  0     # of ELM steps
   EDIFF  = 0.1E-03   stopping-criterion for ELM
   LREAL  =      F    real-space projection
   NLSPLINE    = F    spline interpolate recip. space projectors
   LCOMPAT=      F    compatible to vasp.4.4
   GGA_COMPAT  = T    GGA compatible to vasp.4.4-vasp.4.6
   LMAXPAW     = -100 max onsite density
   LMAXMIX     =    2 max onsite mixed and CHGCAR
   VOSKOWN=      0    Vosko Wilk Nusair interpolation
   ROPT   =    0.00000
 Ionic relaxation
   EDIFFG = -.1E-01   stopping-criterion for IOM
   NSW    =     15    number of steps for IOM
   NBLOCK =      1;   KBLOCK =     15    inner block; outer block
   IBRION =      2    ionic relax: 0-MD 1-quasi-New 2-CG
   NFREE  =      1    steps in history (QN), initial steepest desc. (CG)
   ISIF   =      2    stress and relaxation
   IWAVPR =     11    prediction:  0-non 1-charg 2-wave 3-comb
   ISYM   =      2    0-nonsym 1-usesym 2-fastsym
   LCORR  =      T    Harris-Foulkes like correction to forces

   POTIM  = 0.5000    time-step for ionic-motion
   TEIN   =    0.0    initial temperature
   TEBEG  =    0.0;   TEEND  =   0.0 temperature during run
   SMASS  =  -3.00    Nose mass-parameter (am)
   estimated Nose-frequenzy (Omega)   =  0.10E-29 period in steps =****** mass=  -0.174E-27a.u.
   SCALEE = 1.0000    scale energy and forces
   NPACO  =    256;   APACO  = 16.0  distance and # of slots for P.C.
   PSTRESS=    0.0 pullay stress

  Mass of Ions in am
   POMASS = 183.85
  Ionic Valenz
   ZVAL   =   6.00
  Atomic Wigner-Seitz radii
  virtual crystal weights
   VCA    =   1.00
   NELECT =      30.0000    total number of electrons
   NUPDOWN=      -1.0000    fix difference up-down

 DOS related values:
   EMIN   =  10.00;   EMAX   =-10.00  energy-range for DOS
   EFERMI =   0.00
   ISMEAR =    -5;   SIGMA  =   0.20  broadening in eV -4-tet -1-fermi 0-gaus

 Electronic relaxation 2 (details)
   IALGO  =     38    algorithm
   LDIAG  =      T    sub-space diagonalisation (order eigenvalues)
   LSUBROT=      F    optimize rotation matrix (better conditioning)
   TURBO    =      0    0=normal 1=particle mesh
   IRESTART =      0    0=no restart 2=restart with 2 vectors
   NREBOOT  =      0    no. of reboots
   NMIN     =      0    reboot dimension
   EREF     =   0.00    reference energy to select bands
   IMIX   =      4    mixing-type and parameters
     AMIX     =   0.40;   BMIX     =  1.00
     AMIX_MAG =   1.60;   BMIX_MAG =  1.00
     AMIN     =   0.10
     WC   =   100.;   INIMIX=   1;  MIXPRE=   1;  MAXMIX= -45

 Intra band minimization:
   WEIMIN = 0.0010     energy-eigenvalue tresh-hold
   EBREAK =  0.78E-06  absolut break condition
   DEPER  =   0.30     relativ break condition

   TIME   =   0.40     timestep for ELM

  volume/ion in A,a.u.               =      42.05       283.76
  Fermi-wavevector in a.u.,A,eV,Ry     =   0.855473  1.616609  9.957200  0.731834
  Thomas-Fermi vector in A             =   1.972227

 Write flags
   LWAVE  =      T    write WAVECAR
   LCHARG =      T    write CHGCAR
   LVTOT  =      T    write LOCPOT, total local potential
   LVHAR  =      F    write LOCPOT, Hartree potential only
   LELF   =      F    write electronic localiz. function (ELF)
   LORBIT =      0    0 simple, 1 ext, 2 COOP (PROOUT)

 Dipole corrections
   LMONO  =      F    monopole corrections only (constant potential shift)
   LDIPOL =      F    correct potential (dipole corrections)
   IDIPOL =      0    1-x, 2-y, 3-z, 4-all directions
   EPSILON=  1.0000000 bulk dielectric constant

[...]
   LEPSILON=     F    determine dielectric tensor
   LRPA    =     F    only Hartree local field effects (RPA)
   LNABLA  =     F    use nabla operator in PAW spheres
   LVEL    =     F    velocity operator in full k-point grid
   LINTERFAST=   F  fast interpolation
   KINTER  =     0    interpolate to denser k-point grid
   CSHIFT  =0.1000    complex shift for real part using Kramers Kronig
   OMEGAMAX=  -1.0    maximum frequency
   DEG_THRESHOLD= 0.2000000E-02 threshold for treating states as degnerate
   RTIME   =    0.100 relaxation time in fs

 Orbital magnetization related:
   ORBITALMAG=     F  switch on orbital magnetization
   LCHIMAG   =     F  perturbation theory with respect to B field
   DQ        =  0.001000  dq finite difference perturbation B field

 conjugate gradient relaxation of ions
 charge density and potential will be updated during run
 non-spin polarized calculation
 Variant of blocked Davidson
 Davidson routine will perform the subspace rotation
 perform sub-space diagonalisation
    after iterative eigenvector-optimisation
 modified Broyden-mixing scheme, WC =      100.0
 initial mixing is a Kerker type mixing with AMIX =  0.4000 and BMIX =      1.0000
 Hartree-type preconditioning will be used
 using additional bands           17
 reciprocal scheme for non local part
 use partial core corrections
 calculate Harris-corrections to forces
   (improved forces if not selfconsistent)
 use of overlap-Matrix (Vanderbilt PP)
 Fermi weights with tetrahedron method with Bloechl corrections

  energy-cutoff  :      300.00
  volume of cell :      210.25
      direct lattice vectors                 reciprocal lattice vectors
     2.760000000  0.000000000  0.000000000     0.362318841  0.000000000  0.000000000
     0.000000000  2.760000000  0.000000000     0.000000000  0.362318841  0.000000000
     0.000000000  0.000000000 27.600000000     0.000000000  0.000000000  0.036231884

  length of vectors
     2.760000000  2.760000000 27.600000000     0.362318841  0.362318841  0.036231884

 old parameters found on file WAVECAR:
  energy-cutoff  :      300.00
  volume of cell :      210.25
      direct lattice vectors                 reciprocal lattice vectors
     2.760000000  0.000000000  0.000000000     0.362318841  0.000000000  0.000000000
     0.000000000  2.760000000  0.000000000     0.000000000  0.362318841  0.000000000
     0.000000000  0.000000000 27.600000000     0.000000000  0.000000000  0.036231884

  length of vectors

 k-points in units of 2pi/SCALE and weight: 10 x10x10
   0.00000000  0.00000000  0.00000000       0.008
   0.09090909  0.00000000  0.00000000       0.033
   0.18181818  0.00000000  0.00000000       0.033
   0.27272727  0.00000000  0.00000000       0.033
   0.36363636  0.00000000  0.00000000       0.033
   0.45454545  0.00000000  0.00000000       0.033
   0.09090909  0.09090909  0.00000000       0.033
   0.18181818  0.09090909  0.00000000       0.066
   0.27272727  0.09090909  0.00000000       0.066
   0.36363636  0.09090909  0.00000000       0.066
   0.45454545  0.09090909  0.00000000       0.066
   0.18181818  0.18181818  0.00000000       0.033
   0.27272727  0.18181818  0.00000000       0.066
   0.36363636  0.18181818  0.00000000       0.066
   0.45454545  0.18181818  0.00000000       0.066
   0.27272727  0.27272727  0.00000000       0.033
   0.36363636  0.27272727  0.00000000       0.066
   0.45454545  0.27272727  0.00000000       0.066
   0.36363636  0.36363636  0.00000000       0.033
   0.45454545  0.36363636  0.00000000       0.066
   0.45454545  0.45454545  0.00000000       0.033

 k-points in reciprocal lattice and weights: 10 x10x10
   0.00000000  0.00000000  0.00000000       0.008
   0.09090909  0.00000000  0.00000000       0.033
   0.18181818  0.00000000  0.00000000       0.033
   0.27272727  0.00000000  0.00000000       0.033
   0.36363636  0.00000000  0.00000000       0.033
   0.45454545  0.00000000  0.00000000       0.033
   0.09090909  0.09090909  0.00000000       0.033
   0.18181818  0.09090909  0.00000000       0.066
   0.27272727  0.09090909  0.00000000       0.066
   0.36363636  0.09090909  0.00000000       0.066
   0.45454545  0.09090909  0.00000000       0.066
   0.18181818  0.18181818  0.00000000       0.033
   0.27272727  0.18181818  0.00000000       0.066
   0.36363636  0.18181818  0.00000000       0.066
   0.45454545  0.18181818  0.00000000       0.066
   0.27272727  0.27272727  0.00000000       0.033
   0.36363636  0.27272727  0.00000000       0.066
   0.45454545  0.27272727  0.00000000       0.066
   0.36363636  0.36363636  0.00000000       0.033
   0.45454545  0.36363636  0.00000000       0.066
   0.45454545  0.45454545  0.00000000       0.033

 position of ions in fractional coordinates (direct lattice)
   0.00000000  0.00000000  0.95137920
   0.50000000  0.50000000  0.02545739
   0.00000000  0.00000000  0.10000000
   0.50000000  0.50000000  0.17454261
   0.00000000  0.00000000  0.24862080

 position of ions in cartesian coordinates  (Angst):
   0.00000000  0.00000000 26.25806596
   1.38000000  1.38000000  0.70262394
   0.00000000  0.00000000  2.76000000
   1.38000000  1.38000000  4.81737606
   0.00000000  0.00000000  6.86193404

 k-point  1 :   0.0000 0.0000 0.0000  plane waves:    2441
 k-point  2 :   0.0909 0.0000 0.0000  plane waves:    2455
 k-point  3 :   0.1818 0.0000 0.0000  plane waves:    2462
 k-point  4 :   0.2727 0.0000 0.0000  plane waves:    2464
 k-point  5 :   0.3636 0.0000 0.0000  plane waves:    2450
 k-point  6 :   0.4545 0.0000 0.0000  plane waves:    2458
 k-point  7 :   0.0909 0.0909 0.0000  plane waves:    2453
 k-point  8 :   0.1818 0.0909 0.0000  plane waves:    2456
 k-point  9 :   0.2727 0.0909 0.0000  plane waves:    2466
 k-point 10 :   0.3636 0.0909 0.0000  plane waves:    2457
 k-point 11 :   0.4545 0.0909 0.0000  plane waves:    2464
 k-point 12 :   0.1818 0.1818 0.0000  plane waves:    2467
 k-point 13 :   0.2727 0.1818 0.0000  plane waves:    2457
 k-point 14 :   0.3636 0.1818 0.0000  plane waves:    2485
 k-point 15 :   0.4545 0.1818 0.0000  plane waves:    2488
 k-point 16 :   0.2727 0.2727 0.0000  plane waves:    2480
 k-point 17 :   0.3636 0.2727 0.0000  plane waves:    2511
 k-point 18 :   0.4545 0.2727 0.0000  plane waves:    2515
 k-point 19 :   0.3636 0.3636 0.0000  plane waves:    2514
 k-point 20 :   0.4545 0.3636 0.0000  plane waves:    2517
 k-point 21 :   0.4545 0.4545 0.0000  plane waves:    2548

 maximum and minimum number of plane-waves per node :      2548     2441

 maximum number of plane-waves:      2548
 maximum index in each direction:
   IXMAX=    3   IYMAX=    3   IZMAX=   38
   IXMIN=   -4   IYMIN=   -4   IZMIN=  -38

 WARNING: aliasing errors must be expected set NGX to  16 to avoid them
 WARNING: aliasing errors must be expected set NGY to  16 to avoid them
 WARNING: aliasing errors must be expected set NGZ to 154 to avoid them
 aliasing errors are usually negligible using standard VASP settings
 and one can safely disregard these warnings

 serial   3D FFT for wavefunctions
 parallel 3D FFT for charge:
    minimum data exchange during FFTs selected (reduces bandwidth)

 Broyden mixing: mesh for mixing (old mesh)
   NGX =  7   NGY =  7   NGZ = 77
  (NGX  = 24   NGY  = 24   NGZ  =240)
  gives a total of   3773 points

 charge density for first step will be calculated from the start-wavefunctions

 Maximum index for augmentation-charges          470 (set IRDMAX)

 initial charge from wavefunction
 First call to EWALD:  gamma=   0.298
 Maximum number of real-space cells 5x 5x 1
 Maximum number of reciprocal cells 2x 2x11

 FEWALD executed in parallel

----------------------------------------- Iteration    1(   1)  ---------------------------------------

 BZINTS: Fermi energy: -0.138470; 30.000000 electrons
         Band energy: -88.470993;  BLOECHL correction: -0.117635

 eigenvalue-minimisations  :  1600
 total energy-change (2. order) :-0.6513441E+02  (-0.6077185E-04)
 number of electron      30.0000070 magnetization
 augmentation part        3.4451008 magnetization

 Broyden mixing:
  rms(total) = 0.82653E-02    rms(broyden)= 0.82639E-02
  rms(prec ) = 0.14307E-01
  weight for this iteration     100.00

 Free energy of the ion-electron system (eV)
  alpha Z        PSCENC =        83.00184270
  Ewald energy   TEWEN  =      8441.86083631
  -Hartree energ DENC   =     -9579.97208163
  -exchange      EXHF   =         0.00000000
  -V(xc)+E(xc)   XCENC  =      -235.65815058
  PAW double counting   =      1170.88968872     -889.38653204
  entropy T*S    EENTRO =         0.00000000
  eigenvalues    EBANDS =       -88.47099260
  atomic energy  EATOM  =      1032.60097567
  free energy    TOTEN  =       -65.13441345 eV

  energy without entropy =      -65.13441345  energy(sigma->0) =      -65.13441345

[...]

 eigenvalues of (default mixing * dielectric matrix)
  average eigenvalue GAMMA=   0.1897
  0.1897

[...]

 eigenvalue-minimisations  :  1744
 total energy-change (2. order) : 0.3448507E-02  (-0.1603807E-02)
 number of electron      30.0000070 magnetization
 augmentation part        3.4443370 magnetization

 Broyden mixing:
  rms(total) = 0.18367E-02    rms(broyden)= 0.17200E-02
  rms(prec ) = 0.22425E-02
  weight for this iteration     100.00

 eigenvalues of (default mixing * dielectric matrix)
  average eigenvalue GAMMA=   0.3467
  0.4922  0.2012

[...]

----------------------------------------- Iteration    1(   4)  ---------------------------------------

 BZINTS: Fermi energy: -0.128407; 30.000000 electrons
         Band energy: -88.138415;  BLOECHL correction: -0.116852

 eigenvalue-minimisations  :  1776
 total energy-change (2. order) :-0.1806744E-04  (-0.1013795E-04)
 number of electron      30.0000070 magnetization
 augmentation part        3.4443370 magnetization

 Free energy of the ion-electron system (eV)
  alpha Z        PSCENC =        83.00184270
  Ewald energy   TEWEN  =      8441.86083631
  -Hartree energ DENC   =     -9580.30327539
  -exchange      EXHF   =         0.00000000
  -V(xc)+E(xc)   XCENC  =      -235.65771805
  PAW double counting   =      1170.92273571     -889.42095692
  entropy T*S    EENTRO =         0.00000000
  eigenvalues    EBANDS =       -88.13841486
  atomic energy  EATOM  =      1032.60097567
  free energy    TOTEN  =       -65.13397482 eV

  energy without entropy =      -65.13397482  energy(sigma->0) =      -65.13397482

 average (electrostatic) potential at core
  the test charge radii are     1.1823
  (the norm of the test charge is              1.0000)
       1 -46.0324       2 -45.7582       3 -45.4918       4 -45.7582       5 -46.0324

 E-fermi :  -0.1284     XC(G=0):  -5.8091     alpha+bet : -5.5477

 k-point     1 :       0.0000    0.0000    0.0000
  band No.  band energies     occupation
      1      -8.9410      2.00000
      2      -7.8539      2.00000
      3      -6.3775      2.00000
      4      -5.8938      2.00000
      5      -5.7291      2.00000
      6      -4.7762      2.00000
      7      -4.2941      2.00000
      8      -3.3845      2.00000
      9      -2.4855      2.00000
     10      -1.6714      2.00000
     11      -1.2456      2.00000
     12      -1.1388      2.00000
     13      -0.3536      2.00000
     14      -0.3536      2.00000
     15       0.0760     -0.02351
     16       0.3935      0.00000
     17       0.3935      0.00000
     18       0.4185      0.00000
     19       1.3285      0.00000
     20       1.7949      0.00000
     21       1.7949      0.00000
     22       1.8121      0.00000
     23       3.0370      0.00000
     24       3.3248      0.00000
     25       3.4146      0.00000
     26       3.4146      0.00000
     27       3.9358      0.00000
     28       4.4346      0.00000
     29       4.5162      0.00000
     30       4.6730      0.00000
     31       4.9298      0.00000
     32       5.0676      0.00000

[...]

 k-point    21 :       0.4545    0.4545    0.0000
  band No.  band energies     occupation
      1      -5.6667      2.00000
      2      -5.5416      2.00000
      3      -4.9341      2.00000
      4      -4.7332      2.00000
      5      -4.6565      2.00000
      6      -4.5865      2.00000
      7      -4.1433      2.00000
      8      -3.7411      2.00000
      9      -3.7105      2.00000
     10      -2.1249      2.00000
     11      -2.0115      2.00000
     12      -0.1732      2.00000
     13       0.1180     -0.27641
     14       1.1294      0.00000
     15       1.7386      0.00000
     16       1.9922      0.00000
     17       2.6512      0.00000
     18       2.7357      0.00000
     19       3.7397      0.00000
     20       3.7853      0.00000
     21       3.8582      0.00000
     22       4.1015      0.00000
     23       5.6989      0.00000
     24       5.7912      0.00000
     25       5.8271      0.00000
     26       5.9815      0.00000
     27       7.0019      0.00000
     28       7.1981      0.00000
     29       8.4368      0.00000
     30       8.9449      0.00000
     31       9.5373      0.00000
     32       9.7864      0.00000

 soft charge-density along one line, spin component           1
         0         1         2         3         4         5         6         7         8         9
 total charge-density along one line

------------------------ aborting loop because EDIFF is reached ----------------------------------------

  FORCE on cell =-STRESS in cart. coord.  units (eV):
  Direction    XX          YY          ZZ          XY          YZ          ZX
  Alpha Z    83.00184    83.00184    83.00184
  Ewald    9425.24485  9425.24485-10408.62943     0.00000     0.00000     0.00000
  Hartree  9570.81662  9570.81662 -9560.81472     0.00000     0.00000     0.00000
  E(xc)    -135.18916  -135.18916  -132.88384     0.00000     0.00000     0.00000
  Local  -19304.23176-19304.23176 19663.05257     0.00000     0.00000     0.00000
  n-local   -77.60239   -54.02967   -67.77366     3.66659     0.00000     0.00000
  augment    25.93617    25.93617    25.81129     0.00000     0.00000     0.00000
  Kinetic   392.39366   388.51096   397.97705    -2.04611     0.00000     0.00000
  Fock        0.00000     0.00000     0.00000     0.00000     0.00000     0.00000
  Total      -9.78516    -9.78516    -0.25890     0.00000     0.00000     0.00000
  in kB     -74.56780   -74.56780    -1.97292     0.00000     0.00000     0.00000

 VOLUME and BASIS-vectors are now :
  energy-cutoff  :      300.00
  volume of cell :      210.25
      direct lattice vectors                 reciprocal lattice vectors
     2.760000000  0.000000000  0.000000000     0.362318841  0.000000000  0.000000000
     0.000000000  2.760000000  0.000000000     0.000000000  0.362318841  0.000000000
     0.000000000  0.000000000 27.600000000     0.000000000  0.000000000  0.036231884

  length of vectors
     2.760000000  2.760000000 27.600000000     0.362318841  0.362318841  0.036231884

 FORCES acting on ions
    electron-ion (+dipol)            ewald-force                    non-local-force                 convergence-correction
   -.149E-14 -.108E-13 0.107E+04   0.124E-14 -.383E-16 -.106E+04   -.538E-23 0.132E-22 -.462E+01   -.108E-14 -.460E-15 -.566E-01
   0.257E-14 0.119E-13 0.538E+03   0.120E-13 -.151E-14 -.537E+03   -.827E-24 0.000E+00 -.522E+00   -.480E-15 -.141E-15 -.470E-01
   -.259E-14 0.110E-14 0.339E-12   -.940E-15 -.791E-15 0.534E-10   -.165E-23 0.000E+00 -.207E-24   -.357E-15 -.120E-15 -.221E-12
   0.677E-14 -.772E-15 -.538E+03   0.220E-14 -.996E-15 0.537E+03   0.103E-23 0.000E+00 0.522E+00   -.533E-15 -.643E-15 0.470E-01
   -.259E-14 -.867E-14 -.107E+04   0.687E-14 -.200E-14 0.106E+04   0.662E-23 -.132E-22 0.462E+01   -.606E-15 -.629E-15 0.566E-01
   0.268E-14 -.719E-14 0.501E-10   0.214E-13 -.534E-14 -.227E-12   -.207E-24 0.000E+00 -.888E-15   -.306E-14 -.199E-14 -.964E-12

 POSITION                                       TOTAL-FORCE (eV/Angst)
      0.00000      0.00000     26.25807         0.000000      0.000000     -0.002946
      1.38000      1.38000      0.70262         0.000000      0.000000     -0.006566
      0.00000      0.00000      2.76000         0.000000      0.000000      0.000000
      1.38000      1.38000      4.81738         0.000000      0.000000      0.006566
      0.00000      0.00000      6.86193         0.000000      0.000000      0.002946
    total drift:                                0.000000      0.000000      0.000000

  FREE ENERGIE OF THE ION-ELECTRON SYSTEM (eV)
  free  energy   TOTEN  =       -65.13397482 eV

  energy  without entropy=      -65.13397482  energy(sigma->0) =      -65.13397482

 reached required accuracy - stopping structural energy minimisation
 writing wavefunctions
 BZINTS: Fermi energy: -0.128407; 30.000000 electrons
         Band energy: -88.138415;  BLOECHL correction: -0.116852