 vasp.5.4.4.18Apr17-6-g9f103f2a35 (build May 20 2018 16:52:39) complex

 executed on             LinuxIFC date 2022.11.13  11:56:11

 INCAR:
 POTCAR:   PAW_GGA Mn 03Mar1998
 POTCAR:   PAW_GGA O 05Jan2001
 POTCAR:   PAW_GGA Mn 03Mar1998
   VRHFIN =Mn: d6 s1

   TITEL  = PAW_GGA Mn 03Mar1998
   POMASS =   54.938; ZVAL   =    7.000    mass and valenz
   ENMAX  =  269.887; ENMIN  =  202.415 eV
   QCUT   =   -4.454; QGAM   =    8.908    optimization parameters

   Description
     l     E      TYP  RCUT    TYP  RCUT
     2   .000     23  2.300
     2   .000     23  2.300
     0   .000     23  2.300
     0   .000     23  2.300
     1  -.200     23  2.300
     1  1.500     23  2.300
     3   .000      7   .000

 POTCAR:   PAW_GGA O 05Jan2001
   VRHFIN =O: s2p4

   TITEL  = PAW_GGA O 05Jan2001
   POMASS =   16.000; ZVAL   =    6.000    mass and valenz
   ENMAX  =  400.000; ENMIN  =  300.000 eV
   QCUT   =   -5.520; QGAM   =   11.040    optimization parameters

   Description
     l     E      TYP  RCUT    TYP  RCUT
     0   .000     23  1.200
     0  -.700     23  1.200
     1   .000     23  1.520
     1   .600     23  1.520
     2   .000      7  1.500

 PAW_GGA Mn 03Mar1998                   :
 PAW_GGA O 05Jan2001                    :

 POSCAR: MnO double fcc cell
  positions in direct lattice
  velocities in cartesian coordinates
 exchange correlation table for  LEXCH =        7
   RHO(1)=    0.500       N(1)  =     2000
   RHO(2)=  100.500       N(2)  =     4000

 ion  position               nearest neighbor table
   1  0.000  0.000  0.000-   4 2.22   4 2.22   4 2.22   3 2.22   3 2.22   3 2.22   2 3.14   2 3.14
                             2 3.14   2 3.14   2 3.14   2 3.14
   2  0.500  0.500  0.500-   3 2.22   3 2.22   3 2.22   4 2.22   4 2.22   4 2.22   1 3.14   1 3.14
                             1 3.14   1 3.14   1 3.14   1 3.14
   3  0.250  0.250  0.250-   1 2.22   1 2.22   1 2.22   2 2.22   2 2.22   2 2.22
   4  0.750  0.750  0.750-   2 2.22   2 2.22   2 2.22   1 2.22   1 2.22   1 2.22

  LATTYP: Found a trigonal (rhomboedric) cell.
 ALAT       =     5.4452156982
 COS(alpha) =     0.8333333333

  Lattice vectors:

 A1 = (   4.4460000000,   2.2230000000,   2.2230000000)
 A2 = (   2.2230000000,   4.4460000000,   2.2230000000)
 A3 = (   2.2230000000,   2.2230000000,   4.4460000000)

Analysis of symmetry for initial positions (statically):
 Subroutine PRICEL returns following result:

  LATTYP: Found a face centered cubic cell.
 ALAT       =     4.4460000000

[...]

   2 primitive cells build up your supercell.

 Routine SETGRP: Setting up the symmetry group for a
 trigonal (rhombohedral) supercell.

 Subroutine GETGRP returns: Found 12 space group operations
 (whereof 12 operations were pure point group operations)
 out of a pool of 12 trial point group operations.

The static configuration has the point symmetry D_3d.

Analysis of symmetry for dynamics (positions and initial velocities):
 Subroutine PRICEL returns following result:

[...]

The dynamic configuration has the point symmetry D_3d.

Analysis of structural, dynamic, and magnetic symmetry:
 Subroutine PRICEL returns following result:

  LATTYP: Found a face centered cubic cell.
 ALAT       =     4.4460000000

  Lattice vectors:

 A1 = (   2.2230000000,   0.0000000000,  -2.2230000000)
 A2 = (   0.0000000000,   2.2230000000,  -2.2230000000)
 A3 = (   2.2230000000,   2.2230000000,   0.0000000000)

   2 primitive cells build up your supercell.

 Routine SETGRP: Setting up the symmetry group for a
 trigonal (rhombohedral) supercell.

 Subroutine GETGRP returns: Found 12 space group operations
 (whereof 12 operations were pure point group operations)
 out of a pool of 12 trial point group operations.

The magnetic configuration has the point symmetry D_3d.

 Subroutine INISYM returns: Found 12 space group operations
 (whereof 12 operations are pure point group operations),
 and found     2 'primitive' translations

 KPOINTS: 20x20x20

Automatic generation of k-mesh.
Space group operators:
 irot       det(A)        alpha          n_x          n_y          n_z        tau_x        tau_y        tau_z
    1     1.000000     0.000000     1.000000     0.000000     0.000000     0.000000     0.000000     0.000000
    2    -1.000000     0.000000     1.000000     0.000000     0.000000     0.000000     0.000000     0.000000
    3     1.000000   180.000000    -0.000000     0.707107    -0.707107     0.000000     0.000000     0.000000
    4    -1.000000   180.000000    -0.000000     0.707107    -0.707107     0.000000     0.000000     0.000000
    5     1.000000   120.000000    -0.577350    -0.577350    -0.577350     0.000000     0.000000     0.000000
    6    -1.000000   120.000000    -0.577350    -0.577350    -0.577350     0.000000     0.000000     0.000000
    7     1.000000   180.000000     0.707107    -0.707107     0.000000     0.000000     0.000000     0.000000
    8    -1.000000   180.000000     0.707107    -0.707107     0.000000     0.000000     0.000000     0.000000
    9     1.000000   120.000000     0.577350     0.577350     0.577350     0.000000     0.000000     0.000000
   10    -1.000000   120.000000     0.577350     0.577350     0.577350     0.000000     0.000000     0.000000
   11     1.000000   180.000000    -0.707107     0.000000     0.707107     0.000000     0.000000     0.000000
   12    -1.000000   180.000000    -0.707107     0.000000     0.707107     0.000000     0.000000     0.000000

 Subroutine IBZKPT returns following result:

 Found    770 irreducible k-points:

 Following reciprocal coordinates:
            Coordinates               Weight
  0.025000  0.025000  0.025000      2.000000
  0.075000  0.025000  0.025000      6.000000
  0.125000  0.025000  0.025000      6.000000
  0.175000  0.025000  0.025000      6.000000
  0.225000  0.025000  0.025000      6.000000
  0.275000  0.025000  0.025000      6.000000
  0.325000  0.025000  0.025000      6.000000
  0.375000  0.025000  0.025000      6.000000
  0.425000  0.025000  0.025000      6.000000
  0.475000  0.025000  0.025000      6.000000
 -0.475000  0.025000  0.025000      6.000000
 -0.425000  0.025000  0.025000      6.000000
 -0.375000  0.025000  0.025000      6.000000
 -0.325000  0.025000  0.025000      6.000000
 -0.275000  0.025000  0.025000      6.000000
 -0.225000  0.025000  0.025000      6.000000
 -0.175000  0.025000  0.025000      6.000000
 -0.125000  0.025000  0.025000      6.000000
 -0.075000  0.025000  0.025000      6.000000
 -0.025000  0.025000  0.025000      6.000000
  0.075000  0.075000  0.025000      6.000000
  0.125000  0.075000  0.025000     12.000000
  0.175000  0.075000  0.025000     12.000000
  0.225000  0.075000  0.025000     12.000000
  0.275000  0.075000  0.025000     12.000000
  0.325000  0.075000  0.025000     12.000000
  0.375000  0.075000  0.025000     12.000000
  0.425000  0.075000  0.025000     12.000000
  0.475000  0.075000  0.025000     12.000000
 -0.475000  0.075000  0.025000     12.000000
 -0.425000  0.075000  0.025000     12.000000
 -0.375000  0.075000  0.025000     12.000000
 -0.325000  0.075000  0.025000     12.000000
 -0.275000  0.075000  0.025000     12.000000
 -0.225000  0.075000  0.025000     12.000000
 -0.175000  0.075000  0.025000     12.000000
 -0.125000  0.075000  0.025000     12.000000
 -0.075000  0.075000  0.025000     12.000000
 -0.025000  0.075000  0.025000     12.000000
  0.125000  0.125000  0.025000      6.000000
  0.175000  0.125000  0.025000     12.000000
  0.225000  0.125000  0.025000     12.000000
  0.275000  0.125000  0.025000     12.000000
  0.325000  0.125000  0.025000     12.000000
  0.375000  0.125000  0.025000     12.000000
  0.425000  0.125000  0.025000     12.000000
  0.475000  0.125000  0.025000     12.000000
 -0.475000  0.125000  0.025000     12.000000
 -0.425000  0.125000  0.025000     12.000000
 -0.375000  0.125000  0.025000     12.000000
 -0.325000  0.125000  0.025000     12.000000
 -0.275000  0.125000  0.025000     12.000000
 -0.225000  0.125000  0.025000     12.000000
 -0.175000  0.125000  0.025000     12.000000
 -0.125000  0.125000  0.025000     12.000000
 -0.075000  0.125000  0.025000     12.000000
 -0.025000  0.125000  0.025000     12.000000
  0.175000  0.175000  0.025000      6.000000
  0.225000  0.175000  0.025000     12.000000
  0.275000  0.175000  0.025000     12.000000
[...]
 -0.425000  0.475000  0.375000     12.000000
 -0.375000  0.475000  0.375000     12.000000
 -0.475000 -0.475000  0.375000      6.000000
 -0.425000 -0.475000  0.375000     12.000000
 -0.425000 -0.425000  0.375000      6.000000
  0.425000  0.425000  0.425000      2.000000
  0.475000  0.425000  0.425000      6.000000
 -0.475000  0.425000  0.425000      6.000000
 -0.425000  0.425000  0.425000      6.000000
  0.475000  0.475000  0.425000      6.000000
 -0.475000  0.475000  0.425000     12.000000
 -0.425000  0.475000  0.425000     12.000000
 -0.475000 -0.475000  0.425000      6.000000
  0.475000  0.475000  0.475000      2.000000
 -0.475000  0.475000  0.475000      6.000000

 Following cartesian coordinates:
            Coordinates               Weight
  0.012500  0.012500  0.012500      2.000000
  0.087500 -0.012500 -0.012500      6.000000
  0.162500 -0.037500 -0.037500      6.000000
  0.237500 -0.062500 -0.062500      6.000000
  0.312500 -0.087500 -0.087500      6.000000
  0.387500 -0.112500 -0.112500      6.000000
  0.462500 -0.137500 -0.137500      6.000000
  0.537500 -0.162500 -0.162500      6.000000
  0.612500 -0.187500 -0.187500      6.000000
  0.687500 -0.212500 -0.212500      6.000000
 -0.737500  0.262500  0.262500      6.000000
 -0.662500  0.237500  0.237500      6.000000
 -0.587500  0.212500  0.212500      6.000000
 -0.512500  0.187500  0.187500      6.000000
 -0.437500  0.162500  0.162500      6.000000
 -0.362500  0.137500  0.137500      6.000000
 -0.287500  0.112500  0.112500      6.000000
 -0.212500  0.087500  0.087500      6.000000
 -0.137500  0.062500  0.062500      6.000000
 -0.062500  0.037500  0.037500      6.000000
  0.062500  0.062500 -0.037500      6.000000
  0.137500  0.037500 -0.062500     12.000000
  0.212500  0.012500 -0.087500     12.000000
  0.287500 -0.012500 -0.112500     12.000000
  0.362500 -0.037500 -0.137500     12.000000
  0.437500 -0.062500 -0.162500     12.000000
  0.512500 -0.087500 -0.187500     12.000000
  0.587500 -0.112500 -0.212500     12.000000
  0.662500 -0.137500 -0.237500     12.000000
 -0.762500  0.337500  0.237500     12.000000
 -0.687500  0.312500  0.212500     12.000000
 -0.612500  0.287500  0.187500     12.000000
 -0.537500  0.262500  0.162500     12.000000
 -0.462500  0.237500  0.137500     12.000000
 -0.387500  0.212500  0.112500     12.000000
 -0.312500  0.187500  0.087500     12.000000
 -0.237500  0.162500  0.062500     12.000000
 -0.162500  0.137500  0.037500     12.000000
 -0.087500  0.112500  0.012500     12.000000
  0.112500  0.112500 -0.087500      6.000000
  0.187500  0.087500 -0.112500     12.000000
  0.262500  0.062500 -0.137500     12.000000
  0.337500  0.037500 -0.162500     12.000000
  0.412500  0.012500 -0.187500     12.000000
  0.487500 -0.012500 -0.212500     12.000000
  0.562500 -0.037500 -0.237500     12.000000
  0.637500 -0.062500 -0.262500     12.000000
[...]
 k-point 40 :   0.1250 0.1250 0.0250  plane waves:     785
 k-point 41 :   0.1750 0.1250 0.0250  plane waves:     787
 k-point 42 :   0.2250 0.1250 0.0250  plane waves:     787
 k-point 43 :   0.2750 0.1250 0.0250  plane waves:     790
 k-point 44 :   0.3250 0.1250 0.0250  plane waves:     791
 k-point 45 :   0.3750 0.1250 0.0250  plane waves:     798
 k-point 46 :   0.4250 0.1250 0.0250  plane waves:     801
 k-point 47 :   0.4750 0.1250 0.0250  plane waves:     804
 k-point 48 :  -0.4750 0.1250 0.0250  plane waves:     805
 k-point 49 :  -0.4250 0.1250 0.0250  plane waves:     805
 k-point 50 :  -0.3750 0.1250 0.0250  plane waves:     802
 k-point 51 :  -0.3250 0.1250 0.0250  plane waves:     801
 k-point 52 :  -0.2750 0.1250 0.0250  plane waves:     799
 k-point 53 :  -0.2250 0.1250 0.0250  plane waves:     792
 k-point 54 :  -0.1750 0.1250 0.0250  plane waves:     790
 k-point 55 :  -0.1250 0.1250 0.0250  plane waves:     789
 k-point 56 :  -0.0750 0.1250 0.0250  plane waves:     782
 k-point 57 :  -0.0250 0.1250 0.0250  plane waves:     785
 k-point 58 :   0.1750 0.1750 0.0250  plane waves:     787
 k-point 59 :   0.2250 0.1750 0.0250  plane waves:     790
 k-point 60 :   0.2750 0.1750 0.0250  plane waves:     793
[...]
 k-point 85 :  -0.2750 0.2250 0.0250  plane waves:     803
 k-point 86 :  -0.2250 0.2250 0.0250  plane waves:     801
 k-point 87 :  -0.1750 0.2250 0.0250  plane waves:     794
 k-point 88 :  -0.1250 0.2250 0.0250  plane waves:     793
 k-point 89 :  -0.0750 0.2250 0.0250  plane waves:     791
 k-point 90 :  -0.0250 0.2250 0.0250  plane waves:     787
 k-point 91 :   0.2750 0.2750 0.0250  plane waves:     792
 k-point 92 :   0.3250 0.2750 0.0250  plane waves:     800
 k-point 93 :   0.3750 0.2750 0.0250  plane waves:     797
 k-point 94 :   0.4250 0.2750 0.0250  plane waves:     799
 k-point 95 :   0.4750 0.2750 0.0250  plane waves:     801
 k-point 96 :  -0.4750 0.2750 0.0250  plane waves:     804
 k-point 97 :  -0.4250 0.2750 0.0250  plane waves:     803
 k-point 98 :  -0.3750 0.2750 0.0250  plane waves:     800
 k-point 99 :  -0.3250 0.2750 0.0250  plane waves:     797
 k-point ** :  -0.2750 0.2750 0.0250  plane waves:     800
 k-point ** :  -0.2250 0.2750 0.0250  plane waves:     800
 k-point ** :  -0.1750 0.2750 0.0250  plane waves:     804
 k-point ** :  -0.1250 0.2750 0.0250  plane waves:     797
 k-point ** :  -0.0750 0.2750 0.0250  plane waves:     794
 k-point ** :  -0.0250 0.2750 0.0250  plane waves:     788
 k-point ** :   0.3250 0.3250 0.0250  plane waves:     802
 k-point ** :   0.3750 0.3250 0.0250  plane waves:     802
 k-point ** :   0.4250 0.3250 0.0250  plane waves:     802
 k-point ** :   0.4750 0.3250 0.0250  plane waves:     804
 k-point ** :  -0.4750 0.3250 0.0250  plane waves:     800
 k-point ** :  -0.4250 0.3250 0.0250  plane waves:     800
 k-point ** :  -0.3750 0.3250 0.0250  plane waves:     798
 k-point ** :  -0.3250 0.3250 0.0250  plane waves:     799
 k-point ** :  -0.2750 0.3250 0.0250  plane waves:     800
 k-point ** :  -0.2250 0.3250 0.0250  plane waves:     802
 k-point ** :  -0.1750 0.3250 0.0250  plane waves:     801
 k-point ** :  -0.1250 0.3250 0.0250  plane waves:     799
 k-point ** :  -0.0750 0.3250 0.0250  plane waves:     803
 k-point ** :  -0.0250 0.3250 0.0250  plane waves:     794
 k-point ** :   0.3750 0.3750 0.0250  plane waves:     807
 k-point ** :   0.4250 0.3750 0.0250  plane waves:     810
 k-point ** :   0.4750 0.3750 0.0250  plane waves:     806
 k-point ** :  -0.4750 0.3750 0.0250  plane waves:     802
 k-point ** :  -0.4250 0.3750 0.0250  plane waves:     794
 k-point ** :  -0.3750 0.3750 0.0250  plane waves:     795
 k-point ** :  -0.3250 0.3750 0.0250  plane waves:     803
 k-point ** :  -0.2750 0.3750 0.0250  plane waves:     798
 k-point ** :  -0.2250 0.3750 0.0250  plane waves:     797
 k-point ** :  -0.1750 0.3750 0.0250  plane waves:     800
 k-point ** :  -0.1250 0.3750 0.0250  plane waves:     801
 k-point ** :  -0.0750 0.3750 0.0250  plane waves:     803
 k-point ** :  -0.0250 0.3750 0.0250  plane waves:     795
 k-point ** :   0.4250 0.4250 0.0250  plane waves:     809
 k-point ** :   0.4750 0.4250 0.0250  plane waves:     803
 k-point ** :  -0.4750 0.4250 0.0250  plane waves:     804
 k-point ** :  -0.4250 0.4250 0.0250  plane waves:     799
 k-point ** :  -0.3750 0.4250 0.0250  plane waves:     799
 k-point ** :  -0.3250 0.4250 0.0250  plane waves:     797
 k-point ** :  -0.2750 0.4250 0.0250  plane waves:     798
 k-point ** :  -0.2250 0.4250 0.0250  plane waves:     801
 k-point ** :  -0.1750 0.4250 0.0250  plane waves:     803
 k-point ** :  -0.1250 0.4250 0.0250  plane waves:     802
 k-point ** :  -0.0750 0.4250 0.0250  plane waves:     803
 k-point ** :  -0.0250 0.4250 0.0250  plane waves:     801
 k-point ** :   0.4750 0.4750 0.0250  plane waves:     795
 k-point ** :  -0.4750 0.4750 0.0250  plane waves:     795
 k-point ** :  -0.4250 0.4750 0.0250  plane waves:     800
 k-point ** :  -0.3750 0.4750 0.0250  plane waves:     802
 k-point ** :  -0.3250 0.4750 0.0250  plane waves:     796
 k-point ** :  -0.2750 0.4750 0.0250  plane waves:     799
 k-point ** :  -0.2250 0.4750 0.0250  plane waves:     802
 k-point ** :  -0.1750 0.4750 0.0250  plane waves:     802
 k-point ** :  -0.1250 0.4750 0.0250  plane waves:     805
 k-point ** :  -0.0750 0.4750 0.0250  plane waves:     804
 k-point ** :  -0.0250 0.4750 0.0250  plane waves:     804
 k-point ** :  -0.4750-0.4750 0.0250  plane waves:     785
 k-point ** :  -0.4250-0.4750 0.0250  plane waves:     797
 k-point ** :  -0.3750-0.4750 0.0250  plane waves:     803
 k-point ** :  -0.3250-0.4750 0.0250  plane waves:     805
[...]
 k-point ** :  -0.4250 0.4750 0.3750  plane waves:     790
 k-point ** :  -0.3750 0.4750 0.3750  plane waves:     796
 k-point ** :  -0.4750-0.4750 0.3750  plane waves:     789
 k-point ** :  -0.4250-0.4750 0.3750  plane waves:     793
 k-point ** :  -0.4250-0.4250 0.3750  plane waves:     798
 k-point ** :   0.4250 0.4250 0.4250  plane waves:     781
 k-point ** :   0.4750 0.4250 0.4250  plane waves:     789
 k-point ** :  -0.4750 0.4250 0.4250  plane waves:     784
 k-point ** :  -0.4250 0.4250 0.4250  plane waves:     790
 k-point ** :   0.4750 0.4750 0.4250  plane waves:     782
 k-point ** :  -0.4750 0.4750 0.4250  plane waves:     784
 k-point ** :  -0.4250 0.4750 0.4250  plane waves:     785
 k-point ** :  -0.4750-0.4750 0.4250  plane waves:     780
 k-point ** :   0.4750 0.4750 0.4750  plane waves:     787
 k-point ** :  -0.4750 0.4750 0.4750  plane waves:     781

 maximum and minimum number of plane-waves per node :       820      780

 maximum number of plane-waves:       820
 maximum index in each direction:
   IXMAX=    9   IYMAX=    9   IZMAX=    8
   IXMIN=   -9   IYMIN=   -9   IZMIN=   -9

 serial   3D FFT for wavefunctions
 parallel 3D FFT for charge:
    minimum data exchange during FFTs selected (reduces bandwidth)

 Broyden mixing: mesh for mixing (old mesh)
   NGX = 17   NGY = 17   NGZ = 17
  (NGX  = 56   NGY  = 56   NGZ  = 56)
  gives a total of   4913 points

 initial charge density was supplied:
 charge density of overlapping atoms calculated
 number of electron      26.0000000 magnetization       0.0000000
 keeping initial charge density in first step

 Maximum index for augmentation-charges        17719 (set IRDMAX)

 First call to EWALD:  gamma=   0.502
 Maximum number of real-space cells 3x 3x 3
 Maximum number of reciprocal cells 4x 4x 4

--------------------------------------- Iteration      1(   1)  ---------------------------------------

 BZINTS: Fermi energy: 19.179504; 26.000000 electrons
         Band energy: 240.887802;  BLOECHL correction: -0.181289

 eigenvalue-minimisations  : 52808
 total energy-change (2. order) : 0.2502682E+03  (-0.1042415E+04)
 number of electron      26.0000000 magnetization       0.0000000
 augmentation part       26.0000000 magnetization       0.0000000

 Free energy of the ion-electron system (eV)
  alpha Z        PSCENC =       119.80218577
  Ewald energy   TEWEN  =     -1558.68419992
  -Hartree energ DENC   =      -330.57719731
  -exchange      EXHF   =         0.00000000
  -V(xc)+E(xc)   XCENC  =        30.49558983
  PAW double counting   =      1155.20854729    -1108.17555075
  entropy T*S    EENTRO =         0.00000000
  eigenvalues    EBANDS =       240.88780214
  atomic energy  EATOM  =      1701.31100873
  Solvation  Ediel_sol  =         0.00000000
  free energy    TOTEN  =       250.26818578 eV

  energy without entropy =      250.26818578  energy(sigma->0) =      250.26818578

[...]

 eigenvalue-minimisations  : 53054
 total energy-change (2. order) :-0.2283546E+03  (-0.2242949E+03)
 number of electron      26.0000000 magnetization       0.0000000
 augmentation part       26.0000000 magnetization       0.0000000

[...]

 Broyden mixing:
  rms(total) = 0.28870E+01    rms(broyden)= 0.28869E+01
  rms(prec ) = 0.38534E+01
  weight for this iteration     100.00

[...]

 eigenvalues of (default mixing * dielectric matrix)
  average eigenvalue GAMMA=   0.8661
  0.8661

[...]

 eigenvalue-minimisations  :101653
 total energy-change (2. order) :-0.1251256E-02  (-0.4212991E-02)
 number of electron      26.0000002 magnetization      -0.0000000
 augmentation part        7.9849050 magnetization      -0.0000000

[...]

 eigenvalue-minimisations  : 82901
 total energy-change (2. order) :-0.4033445E-04  (-0.1125787E-03)
 number of electron      26.0000001 magnetization      -0.0000000
 augmentation part        7.9839887 magnetization      -0.0000000

 Broyden mixing:
  rms(total) = 0.39898E-02    rms(broyden)= 0.39857E-02
  rms(prec ) = 0.69567E-02
  weight for this iteration     100.00

 eigenvalues of (default mixing * dielectric matrix)
  average eigenvalue GAMMA=   1.2258
  2.6391  2.5370  1.2432  0.9417  0.8800  0.8800  0.6438  0.6438  0.6241

[...]

--------------------------------------- Iteration      1(  15)  ---------------------------------------

[...]

 eigenvalue-minimisations  : 33183
 total energy-change (2. order) : 0.2638897E-05  (-0.3307513E-05)
 number of electron      26.0000001 magnetization       0.0000000
 augmentation part        7.9839887 magnetization       0.0000000

 Free energy of the ion-electron system (eV)
  alpha Z        PSCENC =       119.80218577
  Ewald energy   TEWEN  =     -1558.68419992
  -Hartree energ DENC   =      -348.36867407
  -exchange      EXHF   =         0.00000000
  -V(xc)+E(xc)   XCENC  =        41.24818816
  PAW double counting   =      1235.86906257    -1181.39239579
  entropy T*S    EENTRO =         0.00000000
  eigenvalues    EBANDS =       -39.32681225
  atomic energy  EATOM  =      1701.31100873
  Solvation  Ediel_sol  =         0.00000000
  free energy    TOTEN  =       -29.54163680 eV

  energy without entropy =      -29.54163680  energy(sigma->0) =      -29.54163680

 average (electrostatic) potential at core
  the test charge radii are     1.0210  0.7215
  (the norm of the test charge is              1.0000)
       1 -44.3460       2 -44.3460       3 -70.8262       4 -70.8262

 E-fermi :   3.8544     XC(G=0): -11.5476     alpha+bet :-11.1101

 spin component 1

 k-point     1 :       0.0250    0.0250    0.0250
  band No.  band energies     occupation
      1     -13.8773      1.00000
      2     -12.8877      1.00000
      3      -2.3261      1.00000
      4      -1.3272      1.00000
      5      -1.3272      1.00000
      6      -0.0443      1.00000
      7      -0.0443      1.00000
      8       0.8262      1.00000
      9       2.5965      1.00000
     10       2.6002      1.00000
     11       2.6002      1.00000
     12       3.2505      1.00000
     13       3.2505      1.00000
     14       6.1250      0.00000
     15       9.8345      0.00000
     16       9.9792      0.00000
     17      10.0641      0.00000

[...]

 spin component 2

[...]

 k-point   770 :      -0.4750    0.4750    0.4750
  band No.  band energies     occupation
      1     -13.4281      1.00000
      2     -13.3744      1.00000
      3      -1.4457      1.00000
      4      -1.3127      1.00000
      5      -1.2449      1.00000
      6      -0.0633      1.00000
      7      -0.0476      1.00000
      8       0.3968      1.00000
      9       1.2637      1.00000
     10       2.0580      1.00000
     11       2.1516      1.00000
     12       3.6773      1.00000
     13       3.7660      1.00000
     14       8.5206      0.00000
     15       8.6868      0.00000
     16       9.7666      0.00000
     17      10.0243      0.00000

 soft charge-density along one line, spin component           1
         0         1         2         3         4         5         6         7         8         9
 total charge-density along one line

 soft charge-density along one line, spin component           2
         0         1         2         3         4         5         6         7         8         9
 total charge-density along one line

------------------------ aborting loop because EDIFF is reached ----------------------------------------

 total charge

# of ion       s       p       d       tot
    1        0.211   0.238   4.999   5.448
    2        0.211   0.238   4.999   5.448
    3        1.577   3.481   0.000   5.058
    4        1.577   3.481   0.000   5.058
tot          3.577   7.439   9.997  21.013

 magnetization (x)

[...]

  FORCE on cell =-STRESS in cart. coord.  units (eV):
  Direction    XX          YY          ZZ          XY          YZ          ZX
  Alpha Z   119.80219   119.80219   119.80219
  Ewald    -519.56220  -519.56220  -519.56220    -0.00000    -0.00000    -0.00000
  Hartree   116.03391   116.03391   116.03391    -0.00673    -0.00673    -0.00673
  E(xc)    -131.10199  -131.10199  -131.10199     0.01083     0.01083     0.01083
  Local      34.44046    34.44046    34.44046     0.06802     0.06802     0.06802
  n-local   -94.36863   -96.61309   -94.95732     0.17321     0.18002    -0.50930
  augment    76.78207    76.78207    76.78207    -0.01230    -0.01230    -0.01230
  Kinetic   396.66695   401.88800   398.55892    -1.21733    -1.20776     1.86615
  Fock        0.00000     0.00000     0.00000     0.00000     0.00000     0.00000
  Total       0.11938     0.11938     0.11938    -0.17911    -0.17911    -0.17911
  in kB       4.35260     4.35260     4.35260    -6.53071    -6.53071    -6.53071

 VOLUME and BASIS-vectors are now :
  energy-cutoff  :      400.00
  volume of cell :       43.94
      direct lattice vectors                 reciprocal lattice vectors
     4.446000000  2.223000000  2.223000000     0.337381916 -0.112460639 -0.112460639
     2.223000000  4.446000000  2.223000000    -0.112460639  0.337381916 -0.112460639
     2.223000000  2.223000000  4.446000000    -0.112460639 -0.112460639  0.337381916

  length of vectors
     5.445215698  5.445215698  5.445215698     0.372989743  0.372989743  0.372989743

 FORCES acting on ions
    electron-ion (+dipol)            ewald-force                    non-local-force                 convergence-correction
   -.277E-12 0.130E-12 -.147E-12   -.142E-13 -.142E-13 -.142E-13   -.960E-22 0.232E-22 -.463E-22   -.105E-13 -.116E-13 -.114E-14
   -.120E-12 0.107E-11 0.912E-12   0.142E-13 0.142E-13 0.142E-13   0.519E-22 0.122E-22 -.418E-22   -.153E-13 0.182E-14 -.130E-14
   -.650E-13 0.477E-12 0.479E-12   -.929E-14 -.115E-13 -.107E-13   -.265E-21 0.000E+00 0.000E+00   0.182E-13 0.986E-14 0.621E-14
   0.153E-11 0.677E-13 0.700E-13   0.118E-13 0.109E-13 0.115E-13   0.106E-21 0.000E+00 0.000E+00   0.409E-14 -.237E-14 0.294E-16
   0.107E-11 0.174E-11 0.131E-11   0.246E-14 -.692E-15 0.721E-15   -.203E-21 0.354E-22 -.881E-22   -.352E-14 -.227E-14 0.380E-14

 POSITION                                       TOTAL-FORCE (eV/Angst)
      0.00000      0.00000      0.00000         0.000000      0.000000     -0.000000
      4.44600      4.44600      4.44600        -0.000000     -0.000000     -0.000000
      2.22300      2.22300      2.22300         0.000000      0.000000      0.000000
      6.66900      6.66900      6.66900         0.000000     -0.000000      0.000000
    total drift:                                0.000000      0.000000      0.000000

  FREE ENERGIE OF THE ION-ELECTRON SYSTEM (eV)
  free  energy   TOTEN  =       -29.54163680 eV

  energy  without entropy=      -29.54163680  energy(sigma->0) =      -29.54163680

 total charge

[...]

 magnetization (x)

# of ion       s       p       d       tot
    1        0.019   0.019   4.670   4.708
    2       -0.019  -0.019  -4.670  -4.708
    3        0.000  -0.000   0.000  -0.000
    4       -0.000  -0.000   0.000  -0.000
tot          0.000  -0.000   0.000  -0.000

 BZINTS: Fermi energy:  3.854446; 26.000000 electrons
         Band energy: -39.326812;  BLOECHL correction:  0.000000