 vasp.5.4.4.18Apr17-6-g9f103f2a35 (build May 20 2018 16:52:39) complex

 executed on             LinuxIFC date 2022.10.01  22:59:21

 INCAR:
 POTCAR:    PAW Ni
 POTCAR:    PAW Ni
   VRHFIN =Ni:

   TITEL  = PAW Ni
   POMASS =   58.690; ZVAL   =   10.000    mass and valenz
   ENMAX  =  269.561; ENMIN  =  202.171 eV
   QCUT   =   -4.451; QGAM   =    8.902    optimization parameters

   Description
     l     E      TYP  RCUT    TYP  RCUT
     2   .000     23  2.300
     2   .000     23  2.300
     0   .000     23  2.300
     0   .000     23  2.300
     1  -.200     23  2.300
     1   .000     23  2.300
     3   .000      7   .000

  PAW Ni                                :

 POSCAR: fcc Ni
  positions in direct lattice
 exchange correlation table for  LEXCH =        7
   RHO(1)=    0.500       N(1)  =     2000
   RHO(2)=  100.500       N(2)  =     4000

 ion  position               nearest neighbor table
   1  0.000  0.000  0.000-

  LATTYP: Found a face centered cubic cell.
 ALAT       =     3.5295000000

  Lattice vectors:

 A1 = (   1.7647500000,   1.7647500000,   0.0000000000)
 A2 = (   0.0000000000,   1.7647500000,   1.7647500000)
 A3 = (   1.7647500000,   0.0000000000,   1.7647500000)

Analysis of symmetry for initial positions (statically):
 Subroutine PRICEL returns:
 Original cell was already a primitive cell.

 Routine SETGRP: Setting up the symmetry group for a
 face centered cubic supercell.

 Subroutine GETGRP returns: Found 48 space group operations
 (whereof 48 operations were pure point group operations)
 out of a pool of 48 trial point group operations.

The static configuration has the point symmetry O_h .

Analysis of symmetry for dynamics (positions and initial velocities):
 Subroutine PRICEL returns:
 Original cell was already a primitive cell.

[...]

The dynamic configuration has the point symmetry O_h .

Analysis of structural, dynamic, and magnetic symmetry:
 Subroutine PRICEL returns:
 Original cell was already a primitive cell.

 Routine SETGRP: Setting up the symmetry group for a
 face centered cubic supercell.

 Subroutine GETGRP returns: Found 48 space group operations
 (whereof 48 operations were pure point group operations)
 out of a pool of 48 trial point group operations.

The magnetic configuration has the point symmetry O_h .

 Subroutine INISYM returns: Found 48 space group operations
 (whereof 48 operations are pure point group operations),
 and found     1 'primitive' translations

 KPOINTS: 10x10x10

Automatic generation of k-mesh.
Space group operators:
 irot       det(A)        alpha          n_x          n_y          n_z        tau_x        tau_y        tau_z
    1     1.000000     0.000000     1.000000     0.000000     0.000000     0.000000     0.000000     0.000000
    2    -1.000000     0.000000     1.000000     0.000000     0.000000     0.000000     0.000000     0.000000
    3     1.000000   120.000000    -0.577350    -0.577350    -0.577350     0.000000     0.000000     0.000000
    4    -1.000000   120.000000    -0.577350    -0.577350    -0.577350     0.000000     0.000000     0.000000
    5     1.000000   120.000000     0.577350     0.577350     0.577350     0.000000     0.000000     0.000000
    6    -1.000000   120.000000     0.577350     0.577350     0.577350     0.000000     0.000000     0.000000
    7     1.000000    90.000000     0.000000    -1.000000     0.000000     0.000000     0.000000     0.000000
    8    -1.000000    90.000000     0.000000    -1.000000     0.000000     0.000000     0.000000     0.000000
    9     1.000000   180.000000     0.707107     0.707107     0.000000     0.000000     0.000000     0.000000
   10    -1.000000   180.000000     0.707107     0.707107     0.000000     0.000000     0.000000     0.000000
   11     1.000000    90.000000     1.000000     0.000000     0.000000     0.000000     0.000000     0.000000
   12    -1.000000    90.000000     1.000000     0.000000     0.000000     0.000000     0.000000     0.000000
   13     1.000000   180.000000     0.000000     1.000000     0.000000     0.000000     0.000000     0.000000
   14    -1.000000   180.000000     0.000000     1.000000     0.000000     0.000000     0.000000     0.000000
   15     1.000000   120.000000     0.577350     0.577350    -0.577350     0.000000     0.000000     0.000000
   16    -1.000000   120.000000     0.577350     0.577350    -0.577350     0.000000     0.000000     0.000000
   17     1.000000   120.000000     0.577350    -0.577350    -0.577350     0.000000     0.000000     0.000000
   18    -1.000000   120.000000     0.577350    -0.577350    -0.577350     0.000000     0.000000     0.000000
   19     1.000000    90.000000     0.000000     1.000000     0.000000     0.000000     0.000000     0.000000
   20    -1.000000    90.000000     0.000000     1.000000     0.000000     0.000000     0.000000     0.000000
   21     1.000000    90.000000     0.000000     0.000000    -1.000000     0.000000     0.000000     0.000000
   22    -1.000000    90.000000     0.000000     0.000000    -1.000000     0.000000     0.000000     0.000000
   23     1.000000   180.000000     0.000000     0.707107     0.707107     0.000000     0.000000     0.000000
   24    -1.000000   180.000000     0.000000     0.707107     0.707107     0.000000     0.000000     0.000000
   25     1.000000   120.000000    -0.577350     0.577350     0.577350     0.000000     0.000000     0.000000
   26    -1.000000   120.000000    -0.577350     0.577350     0.577350     0.000000     0.000000     0.000000
   27     1.000000   120.000000    -0.577350     0.577350    -0.577350     0.000000     0.000000     0.000000
   28    -1.000000   120.000000    -0.577350     0.577350    -0.577350     0.000000     0.000000     0.000000
   29     1.000000   180.000000     0.000000     0.000000     1.000000     0.000000     0.000000     0.000000
   30    -1.000000   180.000000     0.000000     0.000000     1.000000     0.000000     0.000000     0.000000
   31     1.000000    90.000000    -1.000000     0.000000     0.000000     0.000000     0.000000     0.000000
   32    -1.000000    90.000000    -1.000000     0.000000     0.000000     0.000000     0.000000     0.000000
   33     1.000000   180.000000     0.707107     0.000000     0.707107     0.000000     0.000000     0.000000
   34    -1.000000   180.000000     0.707107     0.000000     0.707107     0.000000     0.000000     0.000000
   35     1.000000    90.000000     0.000000     0.000000     1.000000     0.000000     0.000000     0.000000
   36    -1.000000    90.000000     0.000000     0.000000     1.000000     0.000000     0.000000     0.000000
   37     1.000000   120.000000    -0.577350    -0.577350     0.577350     0.000000     0.000000     0.000000
   38    -1.000000   120.000000    -0.577350    -0.577350     0.577350     0.000000     0.000000     0.000000
   39     1.000000   180.000000     1.000000     0.000000     0.000000     0.000000     0.000000     0.000000
   40    -1.000000   180.000000     1.000000     0.000000     0.000000     0.000000     0.000000     0.000000
   41     1.000000   120.000000     0.577350    -0.577350     0.577350     0.000000     0.000000     0.000000
   42    -1.000000   120.000000     0.577350    -0.577350     0.577350     0.000000     0.000000     0.000000
   43     1.000000   180.000000     0.707107    -0.707107     0.000000     0.000000     0.000000     0.000000
   44    -1.000000   180.000000     0.707107    -0.707107     0.000000     0.000000     0.000000     0.000000
   45     1.000000   180.000000     0.707107     0.000000    -0.707107     0.000000     0.000000     0.000000
   46    -1.000000   180.000000     0.707107     0.000000    -0.707107     0.000000     0.000000     0.000000
   47     1.000000   180.000000     0.000000    -0.707107     0.707107     0.000000     0.000000     0.000000
   48    -1.000000   180.000000     0.000000    -0.707107     0.707107     0.000000     0.000000     0.000000

 Subroutine IBZKPT returns following result:

 Found    770 irreducible k-points:

 Following reciprocal coordinates:
            Coordinates               Weight
  0.025000  0.025000  0.025000     96.000000
  0.075000  0.025000  0.025000    288.000000
  0.125000  0.025000  0.025000    288.000000
  0.175000  0.025000  0.025000    288.000000
  0.225000  0.025000  0.025000    288.000000
  0.275000  0.025000  0.025000    288.000000
  0.325000  0.025000  0.025000    288.000000
  0.375000  0.025000  0.025000    288.000000
  0.425000  0.025000  0.025000    288.000000
  0.475000  0.025000  0.025000    288.000000
 -0.475000  0.025000  0.025000    288.000000
 -0.425000  0.025000  0.025000    288.000000
 -0.375000  0.025000  0.025000    288.000000
 -0.325000  0.025000  0.025000    288.000000
 -0.275000  0.025000  0.025000    288.000000
 -0.225000  0.025000  0.025000    288.000000
 -0.175000  0.025000  0.025000    288.000000
 -0.125000  0.025000  0.025000    288.000000
 -0.075000  0.025000  0.025000    288.000000
 -0.025000  0.025000  0.025000    288.000000
  0.075000  0.075000  0.025000    288.000000
  0.125000  0.075000  0.025000    576.000000
  0.175000  0.075000  0.025000    576.000000
  0.225000  0.075000  0.025000    576.000000
  0.275000  0.075000  0.025000    576.000000
  0.325000  0.075000  0.025000    576.000000
  0.375000  0.075000  0.025000    576.000000
  0.425000  0.075000  0.025000    576.000000
  0.475000  0.075000  0.025000    576.000000
 -0.475000  0.075000  0.025000    576.000000
 -0.425000  0.075000  0.025000    576.000000
 -0.375000  0.075000  0.025000    576.000000
 -0.325000  0.075000  0.025000    576.000000
 -0.275000  0.075000  0.025000    576.000000
 -0.225000  0.075000  0.025000    576.000000
 -0.175000  0.075000  0.025000    576.000000
 -0.125000  0.075000  0.025000    576.000000
 -0.075000  0.075000  0.025000    576.000000
 -0.025000  0.075000  0.025000    576.000000
  0.125000  0.125000  0.025000    288.000000
  0.175000  0.125000  0.025000    576.000000
  0.225000  0.125000  0.025000    576.000000
  0.275000  0.125000  0.025000    576.000000
  0.325000  0.125000  0.025000    576.000000
  0.375000  0.125000  0.025000    576.000000
  0.425000  0.125000  0.025000    576.000000
  0.475000  0.125000  0.025000    576.000000
 -0.475000  0.125000  0.025000    576.000000
 -0.425000  0.125000  0.025000    576.000000
 -0.375000  0.125000  0.025000    576.000000
 -0.325000  0.125000  0.025000    576.000000
 -0.275000  0.125000  0.025000    576.000000
 -0.225000  0.125000  0.025000    576.000000
 -0.175000  0.125000  0.025000    576.000000
 -0.125000  0.125000  0.025000    576.000000
 -0.075000  0.125000  0.025000    576.000000
 -0.025000  0.125000  0.025000    576.000000
  0.175000  0.175000  0.025000    288.000000
  0.225000  0.175000  0.025000    576.000000
  0.275000  0.175000  0.025000    576.000000
[...]
 -0.425000  0.475000  0.375000    576.000000
 -0.375000  0.475000  0.375000    576.000000
 -0.475000 -0.475000  0.375000    288.000000
 -0.425000 -0.475000  0.375000    576.000000
 -0.425000 -0.425000  0.375000    288.000000
  0.425000  0.425000  0.425000     96.000000
  0.475000  0.425000  0.425000    288.000000
 -0.475000  0.425000  0.425000    288.000000
[...]
   0.42500000  0.42500000  0.42500000       0.000
   0.47500000  0.42500000  0.42500000       0.001
  -0.47500000  0.42500000  0.42500000       0.001
  -0.42500000  0.42500000  0.42500000       0.001
   0.47500000  0.47500000  0.42500000       0.001
  -0.47500000  0.47500000  0.42500000       0.002
  -0.42500000  0.47500000  0.42500000       0.002
  -0.47500000 -0.47500000  0.42500000       0.001
   0.47500000  0.47500000  0.47500000       0.000
  -0.47500000  0.47500000  0.47500000       0.001

 position of ions in fractional coordinates (direct lattice)
   0.00000000  0.00000000  0.00000000

 position of ions in cartesian coordinates  (Angst):
   0.00000000  0.00000000  0.00000000

 k-point  1 :   0.0250 0.0250 0.0250  plane waves:     283
 k-point  2 :   0.0750 0.0250 0.0250  plane waves:     283
 k-point  3 :   0.1250 0.0250 0.0250  plane waves:     280
 k-point  4 :   0.1750 0.0250 0.0250  plane waves:     281
 k-point  5 :   0.2250 0.0250 0.0250  plane waves:     287
 k-point  6 :   0.2750 0.0250 0.0250  plane waves:     286
 k-point  7 :   0.3250 0.0250 0.0250  plane waves:     287
 k-point  8 :   0.3750 0.0250 0.0250  plane waves:     281
 k-point  9 :   0.4250 0.0250 0.0250  plane waves:     276
 k-point 10 :   0.4750 0.0250 0.0250  plane waves:     270
 k-point 11 :  -0.4750 0.0250 0.0250  plane waves:     272
 k-point 12 :  -0.4250 0.0250 0.0250  plane waves:     269
 k-point 13 :  -0.3750 0.0250 0.0250  plane waves:     280
 k-point 14 :  -0.3250 0.0250 0.0250  plane waves:     283
 k-point 15 :  -0.2750 0.0250 0.0250  plane waves:     287
 k-point 16 :  -0.2250 0.0250 0.0250  plane waves:     287
 k-point 17 :  -0.1750 0.0250 0.0250  plane waves:     283
 k-point 18 :  -0.1250 0.0250 0.0250  plane waves:     283
 k-point 19 :  -0.0750 0.0250 0.0250  plane waves:     282
 k-point 20 :  -0.0250 0.0250 0.0250  plane waves:     283
 k-point 21 :   0.0750 0.0750 0.0250  plane waves:     279
 k-point 22 :   0.1250 0.0750 0.0250  plane waves:     283
 k-point 23 :   0.1750 0.0750 0.0250  plane waves:     284
 k-point 24 :   0.2250 0.0750 0.0250  plane waves:     286
 k-point 25 :   0.2750 0.0750 0.0250  plane waves:     286
 k-point 26 :   0.3250 0.0750 0.0250  plane waves:     283
 k-point 27 :   0.3750 0.0750 0.0250  plane waves:     282
 k-point 28 :   0.4250 0.0750 0.0250  plane waves:     276
 k-point 29 :   0.4750 0.0750 0.0250  plane waves:     274
 k-point 30 :  -0.4750 0.0750 0.0250  plane waves:     271
 k-point 31 :  -0.4250 0.0750 0.0250  plane waves:     274
 k-point 32 :  -0.3750 0.0750 0.0250  plane waves:     277
 k-point 33 :  -0.3250 0.0750 0.0250  plane waves:     281
 k-point 34 :  -0.2750 0.0750 0.0250  plane waves:     286
 k-point 35 :  -0.2250 0.0750 0.0250  plane waves:     287
 k-point 36 :  -0.1750 0.0750 0.0250  plane waves:     286
 k-point 37 :  -0.1250 0.0750 0.0250  plane waves:     283
 k-point 38 :  -0.0750 0.0750 0.0250  plane waves:     282
 k-point 39 :  -0.0250 0.0750 0.0250  plane waves:     281
 k-point 40 :   0.1250 0.1250 0.0250  plane waves:     288
 k-point 41 :   0.1750 0.1250 0.0250  plane waves:     289
 k-point 42 :   0.2250 0.1250 0.0250  plane waves:     289
 k-point 43 :   0.2750 0.1250 0.0250  plane waves:     290
 k-point 44 :   0.3250 0.1250 0.0250  plane waves:     287
 k-point 45 :   0.3750 0.1250 0.0250  plane waves:     282
 k-point 46 :   0.4250 0.1250 0.0250  plane waves:     276
 k-point 47 :   0.4750 0.1250 0.0250  plane waves:     274
 k-point 48 :  -0.4750 0.1250 0.0250  plane waves:     278
 k-point 49 :  -0.4250 0.1250 0.0250  plane waves:     276
 k-point 50 :  -0.3750 0.1250 0.0250  plane waves:     277
 k-point 51 :  -0.3250 0.1250 0.0250  plane waves:     278
 k-point 52 :  -0.2750 0.1250 0.0250  plane waves:     282
 k-point 53 :  -0.2250 0.1250 0.0250  plane waves:     285
 k-point 54 :  -0.1750 0.1250 0.0250  plane waves:     286
 k-point 55 :  -0.1250 0.1250 0.0250  plane waves:     284
 k-point 56 :  -0.0750 0.1250 0.0250  plane waves:     286
 k-point 57 :  -0.0250 0.1250 0.0250  plane waves:     281
 k-point 58 :   0.1750 0.1750 0.0250  plane waves:     291
 k-point 59 :   0.2250 0.1750 0.0250  plane waves:     290
 k-point 60 :   0.2750 0.1750 0.0250  plane waves:     291
[...]
 k-point 85 :  -0.2750 0.2250 0.0250  plane waves:     277
 k-point 86 :  -0.2250 0.2250 0.0250  plane waves:     279
 k-point 87 :  -0.1750 0.2250 0.0250  plane waves:     277
 k-point 88 :  -0.1250 0.2250 0.0250  plane waves:     285
 k-point 89 :  -0.0750 0.2250 0.0250  plane waves:     285
 k-point 90 :  -0.0250 0.2250 0.0250  plane waves:     286
 k-point 91 :   0.2750 0.2750 0.0250  plane waves:     290
 k-point 92 :   0.3250 0.2750 0.0250  plane waves:     287
 k-point 93 :   0.3750 0.2750 0.0250  plane waves:     281
 k-point 94 :   0.4250 0.2750 0.0250  plane waves:     278
 k-point 95 :   0.4750 0.2750 0.0250  plane waves:     278
 k-point 96 :  -0.4750 0.2750 0.0250  plane waves:     279
 k-point 97 :  -0.4250 0.2750 0.0250  plane waves:     275
 k-point 98 :  -0.3750 0.2750 0.0250  plane waves:     275
 k-point 99 :  -0.3250 0.2750 0.0250  plane waves:     279
 k-point ** :  -0.2750 0.2750 0.0250  plane waves:     277
 k-point ** :  -0.2250 0.2750 0.0250  plane waves:     276
 k-point ** :  -0.1750 0.2750 0.0250  plane waves:     277
 k-point ** :  -0.1250 0.2750 0.0250  plane waves:     282
 k-point ** :  -0.0750 0.2750 0.0250  plane waves:     287
 k-point ** :  -0.0250 0.2750 0.0250  plane waves:     285
 k-point ** :   0.3250 0.3250 0.0250  plane waves:     278
 k-point ** :   0.3750 0.3250 0.0250  plane waves:     279
 k-point ** :   0.4250 0.3250 0.0250  plane waves:     280
 k-point ** :   0.4750 0.3250 0.0250  plane waves:     276
 k-point ** :  -0.4750 0.3250 0.0250  plane waves:     278
 k-point ** :  -0.4250 0.3250 0.0250  plane waves:     276
 k-point ** :  -0.3750 0.3250 0.0250  plane waves:     278
 k-point ** :  -0.3250 0.3250 0.0250  plane waves:     279
 k-point ** :  -0.2750 0.3250 0.0250  plane waves:     278
 k-point ** :  -0.2250 0.3250 0.0250  plane waves:     276
 k-point ** :  -0.1750 0.3250 0.0250  plane waves:     277
 k-point ** :  -0.1250 0.3250 0.0250  plane waves:     279
 k-point ** :  -0.0750 0.3250 0.0250  plane waves:     280
 k-point ** :  -0.0250 0.3250 0.0250  plane waves:     286
 k-point ** :   0.3750 0.3750 0.0250  plane waves:     279
 k-point ** :   0.4250 0.3750 0.0250  plane waves:     280
 k-point ** :   0.4750 0.3750 0.0250  plane waves:     276
 k-point ** :  -0.4750 0.3750 0.0250  plane waves:     277
 k-point ** :  -0.4250 0.3750 0.0250  plane waves:     277
 k-point ** :  -0.3750 0.3750 0.0250  plane waves:     275
 k-point ** :  -0.3250 0.3750 0.0250  plane waves:     276
 k-point ** :  -0.2750 0.3750 0.0250  plane waves:     278
 k-point ** :  -0.2250 0.3750 0.0250  plane waves:     274
 k-point ** :  -0.1750 0.3750 0.0250  plane waves:     277
 k-point ** :  -0.1250 0.3750 0.0250  plane waves:     278
 k-point ** :  -0.0750 0.3750 0.0250  plane waves:     277
 k-point ** :  -0.0250 0.3750 0.0250  plane waves:     279
 k-point ** :   0.4250 0.4250 0.0250  plane waves:     282
 k-point ** :   0.4750 0.4250 0.0250  plane waves:     280
 k-point ** :  -0.4750 0.4250 0.0250  plane waves:     279
 k-point ** :  -0.4250 0.4250 0.0250  plane waves:     279
 k-point ** :  -0.3750 0.4250 0.0250  plane waves:     278
 k-point ** :  -0.3250 0.4250 0.0250  plane waves:     277
 k-point ** :  -0.2750 0.4250 0.0250  plane waves:     278
 k-point ** :  -0.2250 0.4250 0.0250  plane waves:     275
 k-point ** :  -0.1750 0.4250 0.0250  plane waves:     276
 k-point ** :  -0.1250 0.4250 0.0250  plane waves:     276
 k-point ** :  -0.0750 0.4250 0.0250  plane waves:     276
 k-point ** :  -0.0250 0.4250 0.0250  plane waves:     274
 k-point ** :   0.4750 0.4750 0.0250  plane waves:     281
 k-point ** :  -0.4750 0.4750 0.0250  plane waves:     279
 k-point ** :  -0.4250 0.4750 0.0250  plane waves:     280
 k-point ** :  -0.3750 0.4750 0.0250  plane waves:     279
 k-point ** :  -0.3250 0.4750 0.0250  plane waves:     277
 k-point ** :  -0.2750 0.4750 0.0250  plane waves:     279
 k-point ** :  -0.2250 0.4750 0.0250  plane waves:     278
 k-point ** :  -0.1750 0.4750 0.0250  plane waves:     274
 k-point ** :  -0.1250 0.4750 0.0250  plane waves:     277
 k-point ** :  -0.0750 0.4750 0.0250  plane waves:     272
 k-point ** :  -0.0250 0.4750 0.0250  plane waves:     271
 k-point ** :  -0.4750-0.4750 0.0250  plane waves:     281
 k-point ** :  -0.4250-0.4750 0.0250  plane waves:     279
 k-point ** :  -0.3750-0.4750 0.0250  plane waves:     277
 k-point ** :  -0.3250-0.4750 0.0250  plane waves:     274
[...]
 k-point ** :  -0.4250 0.4750 0.3750  plane waves:     276
 k-point ** :  -0.3750 0.4750 0.3750  plane waves:     279
 k-point ** :  -0.4750-0.4750 0.3750  plane waves:     276
 k-point ** :  -0.4250-0.4750 0.3750  plane waves:     275
 k-point ** :  -0.4250-0.4250 0.3750  plane waves:     277
 k-point ** :   0.4250 0.4250 0.4250  plane waves:     269
 k-point ** :   0.4750 0.4250 0.4250  plane waves:     273
 k-point ** :  -0.4750 0.4250 0.4250  plane waves:     276
 k-point ** :  -0.4250 0.4250 0.4250  plane waves:     276
 k-point ** :   0.4750 0.4750 0.4250  plane waves:     274
 k-point ** :  -0.4750 0.4750 0.4250  plane waves:     276
 k-point ** :  -0.4250 0.4750 0.4250  plane waves:     278
 k-point ** :  -0.4750-0.4750 0.4250  plane waves:     276
 k-point ** :   0.4750 0.4750 0.4750  plane waves:     272
 k-point ** :  -0.4750 0.4750 0.4750  plane waves:     272

 maximum and minimum number of plane-waves per node :       293      269

 maximum number of plane-waves:       293
 maximum index in each direction:
   IXMAX=    5   IYMAX=    5   IZMAX=    4
   IXMIN=   -5   IYMIN=   -5   IZMIN=   -5

 serial   3D FFT for wavefunctions
 parallel 3D FFT for charge:
    minimum data exchange during FFTs selected (reduces bandwidth)

 initial charge density was supplied:
 number of electron      10.0000001 magnetization       0.6075823
 keeping initial charge density in first step

 Maximum index for augmentation-charges         7803 (set IRDMAX)

 First call to EWALD:  gamma=   0.797
 Maximum number of real-space cells 3x 3x 3
 Maximum number of reciprocal cells 3x 3x 3

--------------------------------------- Iteration      1(   1)  ---------------------------------------

 eigenvalue-minimisations  : 32280
 total energy-change (2. order) : 0.2458044E+02  (-0.5275341E+03)
 number of electron      10.0000001 magnetization       0.6075823
 augmentation part       10.0000001 magnetization       0.6075823

 Free energy of the ion-electron system (eV)
  alpha Z        PSCENC =        91.31243802
  Ewald energy   TEWEN  =      -935.27465713
  -Hartree energ DENC   =      -226.57645985
  -exchange      EXHF   =         0.00000000
  -V(xc)+E(xc)   XCENC  =        30.48807410
  PAW double counting   =       914.66243539     -983.50154281
  entropy T*S    EENTRO =         0.00000072
  eigenvalues    EBANDS =        54.00395401
  atomic energy  EATOM  =      1079.46620042
  Solvation  Ediel_sol  =         0.00000000
  free energy    TOTEN  =        24.58044285 eV

  energy without entropy =       24.58044213  energy(sigma->0) =       24.58044261

[...]

 eigenvalue-minimisations  : 31170
 total energy-change (2. order) :-0.2951901E+02  (-0.2808964E+02)
 number of electron      10.0000001 magnetization       0.6075823
 augmentation part       10.0000001 magnetization       0.6075823

[...]

--------------------------------------- Iteration      1(   6)  ---------------------------------------

 eigenvalue-minimisations  : 28234
 total energy-change (2. order) :-0.8438747E-08  (-0.7936083E-08)
 number of electron      10.0000001 magnetization       0.6075823
 augmentation part       10.0000001 magnetization       0.6075823

 Free energy of the ion-electron system (eV)
  alpha Z        PSCENC =        91.31243802
  Ewald energy   TEWEN  =      -935.27465713
  -Hartree energ DENC   =      -226.57645985
  -exchange      EXHF   =         0.00000000
  -V(xc)+E(xc)   XCENC  =        30.48807410
  PAW double counting   =       914.66243539     -983.50154281
  entropy T*S    EENTRO =        -0.00253465
  eigenvalues    EBANDS =        23.96377379
  atomic energy  EATOM  =      1079.46620042
  Solvation  Ediel_sol  =         0.00000000
  free energy    TOTEN  =        -5.46227274 eV

  energy without entropy =       -5.45973809  energy(sigma->0) =       -5.46142786

 average (electrostatic) potential at core
  the test charge radii are     0.9791
  (the norm of the test charge is              1.0000)
       1 -42.7011

 E-fermi :   4.6479     XC(G=0): -13.2179     alpha+bet :-11.7651

 spin component 1

 k-point     1 :       0.0250    0.0250    0.0250
  band No.  band energies     occupation
      1      -4.1997      1.00000
      2       2.3247      1.00000
      3       2.3366      1.00000
      4       2.3366      1.00000
      5       3.3776      1.00000
      6       3.3776      1.00000
      7      28.6793      0.00000
      8      31.8211      0.00000
      9      32.2380      0.00000
     10      32.2380      0.00000

[...]

 spin component 2

[...]

 k-point   770 :      -0.4750    0.4750    0.4750
  band No.  band energies     occupation
      1       0.3758      1.00000
      2       2.8351      1.00000
      3       2.9207      1.00000
      4       3.9548      1.00001
      5       4.7799      0.05480
      6       5.3379     -0.00001
      7      10.7113      0.00000
      8      26.4735      0.00000
      9      28.5093      0.00000
     10      28.7667      0.00000

 soft charge-density along one line, spin component           1
         0         1         2         3         4         5         6         7         8         9
 total charge-density along one line

 soft charge-density along one line, spin component           2
         0         1         2         3         4         5         6         7         8         9
 total charge-density along one line

------------------------ aborting loop because EDIFF is reached ----------------------------------------

 total charge

# of ion       s       p       d       tot
    1        0.495   0.485   8.327   9.308

 magnetization (x)

[...]

  FORCE on cell =-STRESS in cart. coord.  units (eV):
  Direction    XX          YY          ZZ          XY          YZ          ZX
  Alpha Z    91.31244    91.31244    91.31244
  Ewald    -311.75823  -311.75823  -311.75823    -0.00000    -0.00000     0.00000
  Hartree    75.50930    75.50930    75.50930     0.00000     0.00000     0.00000
  E(xc)     -55.29973   -55.29973   -55.29973    -0.00001    -0.00001    -0.00001
  Local     102.59074   102.59074   102.59074     0.00014     0.00014     0.00014
  n-local   -32.53915   -33.50042   -32.44296    -0.89145     0.00290     0.87170
  augment    52.22032    52.22032    52.22032    -0.00007    -0.00007    -0.00007
  Kinetic    77.41865    79.78152    77.19268     0.62574    -0.00785    -0.64650
  Fock        0.00000     0.00000     0.00000     0.00000     0.00000     0.00000
  Total      -0.12173    -0.12173    -0.12173    -0.00000    -0.00000     0.00000
  in kB     -17.74315   -17.74315   -17.74315    -0.00000    -0.00000     0.00000

 VOLUME and BASIS-vectors are now :
  energy-cutoff  :      500.00
  volume of cell :       10.99
      direct lattice vectors                 reciprocal lattice vectors
     1.764750000  1.764750000  0.000000000     0.283326250  0.283326250 -0.283326250
     0.000000000  1.764750000  1.764750000    -0.283326250  0.283326250  0.283326250
     1.764750000  0.000000000  1.764750000     0.283326250 -0.283326250  0.283326250

  length of vectors
     2.495733384  2.495733384  2.495733384     0.490735460  0.490735460  0.490735460

 FORCES acting on ions
    electron-ion (+dipol)            ewald-force                    non-local-force                 convergence-correction
   -.176E-13 -.808E-13 0.489E-13   0.666E-15 0.191E-14 0.337E-15   0.000E+00 0.331E-23 -.331E-23   -.345E-14 -.583E-14 0.746E-15
   -.176E-13 -.808E-13 0.489E-13   0.666E-15 0.191E-14 0.337E-15   0.000E+00 0.331E-23 -.331E-23   -.345E-14 -.583E-14 0.746E-15

 POSITION                                       TOTAL-FORCE (eV/Angst)
      0.00000      0.00000      0.00000         0.000000     -0.000000      0.000000
    total drift:                               -0.000000     -0.000000      0.000000

  FREE ENERGIE OF THE ION-ELECTRON SYSTEM (eV)
  free  energy   TOTEN  =        -5.46227274 eV

  energy  without entropy=       -5.45973809  energy(sigma->0) =       -5.46142786

 total charge

[...]

 magnetization (x)

# of ion       s       p       d       tot
    1       -0.005  -0.022   0.647   0.620