 vasp.5.4.4.18Apr17-6-g9f103f2a35 (build May 20 2018 16:52:39) complex

 executed on             LinuxIFC date 2022.10.31  00:30:54

 INCAR:
 POTCAR:    PAW Fe
 POTCAR:    PAW Fe
   VRHFIN =Fe:  d7 s1

   TITEL  = PAW Fe
   POMASS =   55.847; ZVAL   =    8.000    mass and valenz
   ENMAX  =  267.969; ENMIN  =  200.977 eV
   QCUT   =   -4.438; QGAM   =    8.876    optimization parameters

   Description
     l     E      TYP  RCUT    TYP  RCUT
     2   .000     23  2.300
     2   .000     23  2.300
     0   .000     23  2.300
     0   .000     23  2.300
     1  -.200     23  2.300
     1   .000     23  2.300
     3   .000      7   .000

  PAW Fe                                :

 POSCAR: Fe bulk fcc
  positions in direct lattice
 exchange correlation table for  LEXCH =        2
   RHO(1)=    0.500       N(1)  =     2000
   RHO(2)=  100.500       N(2)  =     4000

 ion  position               nearest neighbor table
   1  0.000  0.000  0.000-

  LATTYP: Found a face centered cubic cell.
 ALAT       =     3.4500000000

  Lattice vectors:

 A1 = (   0.0000000000,   1.7250000000,   1.7250000000)
 A2 = (   1.7250000000,   0.0000000000,   1.7250000000)
 A3 = (   1.7250000000,   1.7250000000,   0.0000000000)

Analysis of symmetry for initial positions (statically):
 Subroutine PRICEL returns:
 Original cell was already a primitive cell.

 Routine SETGRP: Setting up the symmetry group for a
 face centered cubic supercell.

 Subroutine GETGRP returns: Found 48 space group operations
 (whereof 48 operations were pure point group operations)
 out of a pool of 48 trial point group operations.

The static configuration has the point symmetry O_h .

Analysis of symmetry for dynamics (positions and initial velocities):
 Subroutine PRICEL returns:
 Original cell was already a primitive cell.

[...]

The dynamic configuration has the point symmetry O_h .

Analysis of structural, dynamic, and magnetic symmetry:
 Subroutine PRICEL returns:
 Original cell was already a primitive cell.

 Routine SETGRP: Setting up the symmetry group for a
 face centered cubic supercell.

 Subroutine GETGRP returns: Found 48 space group operations
 (whereof 48 operations were pure point group operations)
 out of a pool of 48 trial point group operations.

The magnetic configuration has the point symmetry O_h .

 Subroutine INISYM returns: Found 48 space group operations
 (whereof 48 operations are pure point group operations),
 and found     1 'primitive' translations

 KPOINTS: 20x20x20

Automatic generation of k-mesh.
Space group operators:
 irot       det(A)        alpha          n_x          n_y          n_z        tau_x        tau_y        tau_z
    1     1.000000     0.000000     1.000000     0.000000     0.000000     0.000000     0.000000     0.000000
    2    -1.000000     0.000000     1.000000     0.000000     0.000000     0.000000     0.000000     0.000000
    3     1.000000   120.000000    -0.577350    -0.577350    -0.577350     0.000000     0.000000     0.000000
    4    -1.000000   120.000000    -0.577350    -0.577350    -0.577350     0.000000     0.000000     0.000000
    5     1.000000   120.000000     0.577350     0.577350     0.577350     0.000000     0.000000     0.000000
    6    -1.000000   120.000000     0.577350     0.577350     0.577350     0.000000     0.000000     0.000000
    7     1.000000    90.000000     0.000000     0.000000    -1.000000     0.000000     0.000000     0.000000
    8    -1.000000    90.000000     0.000000     0.000000    -1.000000     0.000000     0.000000     0.000000
    9     1.000000   180.000000     0.000000     0.707107     0.707107     0.000000     0.000000     0.000000
   10    -1.000000   180.000000     0.000000     0.707107     0.707107     0.000000     0.000000     0.000000
   11     1.000000    90.000000     0.000000     1.000000     0.000000     0.000000     0.000000     0.000000
   12    -1.000000    90.000000     0.000000     1.000000     0.000000     0.000000     0.000000     0.000000
   13     1.000000   180.000000     0.000000     0.000000     1.000000     0.000000     0.000000     0.000000
   14    -1.000000   180.000000     0.000000     0.000000     1.000000     0.000000     0.000000     0.000000
   15     1.000000   120.000000    -0.577350     0.577350     0.577350     0.000000     0.000000     0.000000
   16    -1.000000   120.000000    -0.577350     0.577350     0.577350     0.000000     0.000000     0.000000
   17     1.000000   120.000000    -0.577350     0.577350    -0.577350     0.000000     0.000000     0.000000
   18    -1.000000   120.000000    -0.577350     0.577350    -0.577350     0.000000     0.000000     0.000000
   19     1.000000    90.000000     0.000000     0.000000     1.000000     0.000000     0.000000     0.000000
   20    -1.000000    90.000000     0.000000     0.000000     1.000000     0.000000     0.000000     0.000000
   21     1.000000    90.000000    -1.000000     0.000000     0.000000     0.000000     0.000000     0.000000
   22    -1.000000    90.000000    -1.000000     0.000000     0.000000     0.000000     0.000000     0.000000
   23     1.000000   180.000000     0.707107     0.000000     0.707107     0.000000     0.000000     0.000000
   24    -1.000000   180.000000     0.707107     0.000000     0.707107     0.000000     0.000000     0.000000
   25     1.000000   120.000000     0.577350    -0.577350     0.577350     0.000000     0.000000     0.000000
   26    -1.000000   120.000000     0.577350    -0.577350     0.577350     0.000000     0.000000     0.000000
   27     1.000000   120.000000    -0.577350    -0.577350     0.577350     0.000000     0.000000     0.000000
   28    -1.000000   120.000000    -0.577350    -0.577350     0.577350     0.000000     0.000000     0.000000
   29     1.000000   180.000000     1.000000     0.000000     0.000000     0.000000     0.000000     0.000000
   30    -1.000000   180.000000     1.000000     0.000000     0.000000     0.000000     0.000000     0.000000
   31     1.000000    90.000000     0.000000    -1.000000     0.000000     0.000000     0.000000     0.000000
   32    -1.000000    90.000000     0.000000    -1.000000     0.000000     0.000000     0.000000     0.000000
   33     1.000000   180.000000     0.707107     0.707107     0.000000     0.000000     0.000000     0.000000
   34    -1.000000   180.000000     0.707107     0.707107     0.000000     0.000000     0.000000     0.000000
   35     1.000000    90.000000     1.000000     0.000000     0.000000     0.000000     0.000000     0.000000
   36    -1.000000    90.000000     1.000000     0.000000     0.000000     0.000000     0.000000     0.000000
   37     1.000000   120.000000     0.577350    -0.577350    -0.577350     0.000000     0.000000     0.000000
   38    -1.000000   120.000000     0.577350    -0.577350    -0.577350     0.000000     0.000000     0.000000
   39     1.000000   180.000000     0.000000     1.000000     0.000000     0.000000     0.000000     0.000000
   40    -1.000000   180.000000     0.000000     1.000000     0.000000     0.000000     0.000000     0.000000
   41     1.000000   120.000000     0.577350     0.577350    -0.577350     0.000000     0.000000     0.000000
   42    -1.000000   120.000000     0.577350     0.577350    -0.577350     0.000000     0.000000     0.000000
   43     1.000000   180.000000     0.000000    -0.707107     0.707107     0.000000     0.000000     0.000000
   44    -1.000000   180.000000     0.000000    -0.707107     0.707107     0.000000     0.000000     0.000000
   45     1.000000   180.000000     0.707107    -0.707107     0.000000     0.000000     0.000000     0.000000
   46    -1.000000   180.000000     0.707107    -0.707107     0.000000     0.000000     0.000000     0.000000
   47     1.000000   180.000000     0.707107     0.000000    -0.707107     0.000000     0.000000     0.000000
   48    -1.000000   180.000000     0.707107     0.000000    -0.707107     0.000000     0.000000     0.000000

 Subroutine IBZKPT returns following result:

 Found    770 irreducible k-points:

 Following reciprocal coordinates:
            Coordinates               Weight
  0.025000  0.025000  0.025000     96.000000
  0.075000  0.025000  0.025000    288.000000
  0.125000  0.025000  0.025000    288.000000
  0.175000  0.025000  0.025000    288.000000
  0.225000  0.025000  0.025000    288.000000
  0.275000  0.025000  0.025000    288.000000
  0.325000  0.025000  0.025000    288.000000
  0.375000  0.025000  0.025000    288.000000
  0.425000  0.025000  0.025000    288.000000
  0.475000  0.025000  0.025000    288.000000
 -0.475000  0.025000  0.025000    288.000000
 -0.425000  0.025000  0.025000    288.000000
 -0.375000  0.025000  0.025000    288.000000
 -0.325000  0.025000  0.025000    288.000000
 -0.275000  0.025000  0.025000    288.000000
 -0.225000  0.025000  0.025000    288.000000
 -0.175000  0.025000  0.025000    288.000000
 -0.125000  0.025000  0.025000    288.000000
 -0.075000  0.025000  0.025000    288.000000
 -0.025000  0.025000  0.025000    288.000000
  0.075000  0.075000  0.025000    288.000000
  0.125000  0.075000  0.025000    576.000000
  0.175000  0.075000  0.025000    576.000000
  0.225000  0.075000  0.025000    576.000000
  0.275000  0.075000  0.025000    576.000000
  0.325000  0.075000  0.025000    576.000000
  0.375000  0.075000  0.025000    576.000000
  0.425000  0.075000  0.025000    576.000000
  0.475000  0.075000  0.025000    576.000000
 -0.475000  0.075000  0.025000    576.000000
 -0.425000  0.075000  0.025000    576.000000
 -0.375000  0.075000  0.025000    576.000000
 -0.325000  0.075000  0.025000    576.000000
 -0.275000  0.075000  0.025000    576.000000
 -0.225000  0.075000  0.025000    576.000000
 -0.175000  0.075000  0.025000    576.000000
 -0.125000  0.075000  0.025000    576.000000
 -0.075000  0.075000  0.025000    576.000000
 -0.025000  0.075000  0.025000    576.000000
  0.125000  0.125000  0.025000    288.000000
  0.175000  0.125000  0.025000    576.000000
  0.225000  0.125000  0.025000    576.000000
  0.275000  0.125000  0.025000    576.000000
  0.325000  0.125000  0.025000    576.000000
  0.375000  0.125000  0.025000    576.000000
  0.425000  0.125000  0.025000    576.000000
  0.475000  0.125000  0.025000    576.000000
 -0.475000  0.125000  0.025000    576.000000
 -0.425000  0.125000  0.025000    576.000000
 -0.375000  0.125000  0.025000    576.000000
 -0.325000  0.125000  0.025000    576.000000
 -0.275000  0.125000  0.025000    576.000000
 -0.225000  0.125000  0.025000    576.000000
 -0.175000  0.125000  0.025000    576.000000
 -0.125000  0.125000  0.025000    576.000000
 -0.075000  0.125000  0.025000    576.000000
 -0.025000  0.125000  0.025000    576.000000
  0.175000  0.175000  0.025000    288.000000
  0.225000  0.175000  0.025000    576.000000
  0.275000  0.175000  0.025000    576.000000
[...]
 -0.425000  0.475000  0.375000    576.000000
 -0.375000  0.475000  0.375000    576.000000
 -0.475000 -0.475000  0.375000    288.000000
 -0.425000 -0.475000  0.375000    576.000000
 -0.425000 -0.425000  0.375000    288.000000
  0.425000  0.425000  0.425000     96.000000
  0.475000  0.425000  0.425000    288.000000
 -0.475000  0.425000  0.425000    288.000000
[...]
 k-point 12 :  -0.4250 0.0250 0.0250  plane waves:     104
 k-point 13 :  -0.3750 0.0250 0.0250  plane waves:     101
 k-point 14 :  -0.3250 0.0250 0.0250  plane waves:      99
 k-point 15 :  -0.2750 0.0250 0.0250  plane waves:     100
 k-point 16 :  -0.2250 0.0250 0.0250  plane waves:     102
 k-point 17 :  -0.1750 0.0250 0.0250  plane waves:     105
 k-point 18 :  -0.1250 0.0250 0.0250  plane waves:     107
 k-point 19 :  -0.0750 0.0250 0.0250  plane waves:     111
 k-point 20 :  -0.0250 0.0250 0.0250  plane waves:     113
 k-point 21 :   0.0750 0.0750 0.0250  plane waves:     113
 k-point 22 :   0.1250 0.0750 0.0250  plane waves:     109
 k-point 23 :   0.1750 0.0750 0.0250  plane waves:     105
 k-point 24 :   0.2250 0.0750 0.0250  plane waves:     103
 k-point 25 :   0.2750 0.0750 0.0250  plane waves:     102
 k-point 26 :   0.3250 0.0750 0.0250  plane waves:     102
 k-point 27 :   0.3750 0.0750 0.0250  plane waves:     102
 k-point 28 :   0.4250 0.0750 0.0250  plane waves:     103
 k-point 29 :   0.4750 0.0750 0.0250  plane waves:     103
 k-point 30 :  -0.4750 0.0750 0.0250  plane waves:     103
 k-point 31 :  -0.4250 0.0750 0.0250  plane waves:     102
 k-point 32 :  -0.3750 0.0750 0.0250  plane waves:     101
 k-point 33 :  -0.3250 0.0750 0.0250  plane waves:     103
 k-point 34 :  -0.2750 0.0750 0.0250  plane waves:     102
 k-point 35 :  -0.2250 0.0750 0.0250  plane waves:     101
 k-point 36 :  -0.1750 0.0750 0.0250  plane waves:     103
 k-point 37 :  -0.1250 0.0750 0.0250  plane waves:     103
 k-point 38 :  -0.0750 0.0750 0.0250  plane waves:     109
 k-point 39 :  -0.0250 0.0750 0.0250  plane waves:     112
 k-point 40 :   0.1250 0.1250 0.0250  plane waves:     109
 k-point 41 :   0.1750 0.1250 0.0250  plane waves:     106
 k-point 42 :   0.2250 0.1250 0.0250  plane waves:     102
 k-point 43 :   0.2750 0.1250 0.0250  plane waves:     104
 k-point 44 :   0.3250 0.1250 0.0250  plane waves:     103
 k-point 45 :   0.3750 0.1250 0.0250  plane waves:     103
 k-point 46 :   0.4250 0.1250 0.0250  plane waves:     103
 k-point 47 :   0.4750 0.1250 0.0250  plane waves:     103
 k-point 48 :  -0.4750 0.1250 0.0250  plane waves:     100
 k-point 49 :  -0.4250 0.1250 0.0250  plane waves:     102
 k-point 50 :  -0.3750 0.1250 0.0250  plane waves:     103
 k-point 51 :  -0.3250 0.1250 0.0250  plane waves:     101
 k-point 52 :  -0.2750 0.1250 0.0250  plane waves:     100
 k-point 53 :  -0.2250 0.1250 0.0250  plane waves:     100
 k-point 54 :  -0.1750 0.1250 0.0250  plane waves:     104
 k-point 55 :  -0.1250 0.1250 0.0250  plane waves:     104
 k-point 56 :  -0.0750 0.1250 0.0250  plane waves:     105
 k-point 57 :  -0.0250 0.1250 0.0250  plane waves:     108
 k-point 58 :   0.1750 0.1750 0.0250  plane waves:     103
 k-point 59 :   0.2250 0.1750 0.0250  plane waves:     103
 k-point 60 :   0.2750 0.1750 0.0250  plane waves:     102
[...]
 k-point 85 :  -0.2750 0.2250 0.0250  plane waves:     100
 k-point 86 :  -0.2250 0.2250 0.0250  plane waves:      99
 k-point 87 :  -0.1750 0.2250 0.0250  plane waves:      99
 k-point 88 :  -0.1250 0.2250 0.0250  plane waves:     101
 k-point 89 :  -0.0750 0.2250 0.0250  plane waves:     104
 k-point 90 :  -0.0250 0.2250 0.0250  plane waves:     102
 k-point 91 :   0.2750 0.2750 0.0250  plane waves:     101
 k-point 92 :   0.3250 0.2750 0.0250  plane waves:     101
 k-point 93 :   0.3750 0.2750 0.0250  plane waves:     101
 k-point 94 :   0.4250 0.2750 0.0250  plane waves:     102
 k-point 95 :   0.4750 0.2750 0.0250  plane waves:     103
 k-point 96 :  -0.4750 0.2750 0.0250  plane waves:     103
 k-point 97 :  -0.4250 0.2750 0.0250  plane waves:     101
 k-point 98 :  -0.3750 0.2750 0.0250  plane waves:     101
 k-point 99 :  -0.3250 0.2750 0.0250  plane waves:     101
 k-point ** :  -0.2750 0.2750 0.0250  plane waves:     101
 k-point ** :  -0.2250 0.2750 0.0250  plane waves:      98
 k-point ** :  -0.1750 0.2750 0.0250  plane waves:      98
 k-point ** :  -0.1250 0.2750 0.0250  plane waves:     100
 k-point ** :  -0.0750 0.2750 0.0250  plane waves:     102
 k-point ** :  -0.0250 0.2750 0.0250  plane waves:     101
 k-point ** :   0.3250 0.3250 0.0250  plane waves:     103
 k-point ** :   0.3750 0.3250 0.0250  plane waves:     104
 k-point ** :   0.4250 0.3250 0.0250  plane waves:     102
 k-point ** :   0.4750 0.3250 0.0250  plane waves:     103
 k-point ** :  -0.4750 0.3250 0.0250  plane waves:     103
 k-point ** :  -0.4250 0.3250 0.0250  plane waves:     102
 k-point ** :  -0.3750 0.3250 0.0250  plane waves:     101
 k-point ** :  -0.3250 0.3250 0.0250  plane waves:     101
 k-point ** :  -0.2750 0.3250 0.0250  plane waves:     101
 k-point ** :  -0.2250 0.3250 0.0250  plane waves:     101
 k-point ** :  -0.1750 0.3250 0.0250  plane waves:     100
 k-point ** :  -0.1250 0.3250 0.0250  plane waves:     101
 k-point ** :  -0.0750 0.3250 0.0250  plane waves:     101
 k-point ** :  -0.0250 0.3250 0.0250  plane waves:     100
 k-point ** :   0.3750 0.3750 0.0250  plane waves:     103
 k-point ** :   0.4250 0.3750 0.0250  plane waves:     104
 k-point ** :   0.4750 0.3750 0.0250  plane waves:     102
 k-point ** :  -0.4750 0.3750 0.0250  plane waves:     103
 k-point ** :  -0.4250 0.3750 0.0250  plane waves:     102
 k-point ** :  -0.3750 0.3750 0.0250  plane waves:     102
 k-point ** :  -0.3250 0.3750 0.0250  plane waves:     101
 k-point ** :  -0.2750 0.3750 0.0250  plane waves:     101
 k-point ** :  -0.2250 0.3750 0.0250  plane waves:     101
 k-point ** :  -0.1750 0.3750 0.0250  plane waves:     101
 k-point ** :  -0.1250 0.3750 0.0250  plane waves:     102
 k-point ** :  -0.0750 0.3750 0.0250  plane waves:     101
 k-point ** :  -0.0250 0.3750 0.0250  plane waves:     101
 k-point ** :   0.4250 0.4250 0.0250  plane waves:     103
 k-point ** :   0.4750 0.4250 0.0250  plane waves:     102
 k-point ** :  -0.4750 0.4250 0.0250  plane waves:     103
 k-point ** :  -0.4250 0.4250 0.0250  plane waves:     102
 k-point ** :  -0.3750 0.4250 0.0250  plane waves:     102
 k-point ** :  -0.3250 0.4250 0.0250  plane waves:     102
 k-point ** :  -0.2750 0.4250 0.0250  plane waves:     101
 k-point ** :  -0.2250 0.4250 0.0250  plane waves:     101
 k-point ** :  -0.1750 0.4250 0.0250  plane waves:     101
 k-point ** :  -0.1250 0.4250 0.0250  plane waves:     103
 k-point ** :  -0.0750 0.4250 0.0250  plane waves:     103
 k-point ** :  -0.0250 0.4250 0.0250  plane waves:     103
 k-point ** :   0.4750 0.4750 0.0250  plane waves:     104
 k-point ** :  -0.4750 0.4750 0.0250  plane waves:     102
 k-point ** :  -0.4250 0.4750 0.0250  plane waves:     104
 k-point ** :  -0.3750 0.4750 0.0250  plane waves:     103
 k-point ** :  -0.3250 0.4750 0.0250  plane waves:     102
 k-point ** :  -0.2750 0.4750 0.0250  plane waves:     103
 k-point ** :  -0.2250 0.4750 0.0250  plane waves:     101
 k-point ** :  -0.1750 0.4750 0.0250  plane waves:     102
 k-point ** :  -0.1250 0.4750 0.0250  plane waves:     103
 k-point ** :  -0.0750 0.4750 0.0250  plane waves:     101
 k-point ** :  -0.0250 0.4750 0.0250  plane waves:     104
 k-point ** :  -0.4750-0.4750 0.0250  plane waves:     104
 k-point ** :  -0.4250-0.4750 0.0250  plane waves:     102
 k-point ** :  -0.3750-0.4750 0.0250  plane waves:     102
 k-point ** :  -0.3250-0.4750 0.0250  plane waves:     104
[...]
 k-point ** :  -0.4250 0.4750 0.3750  plane waves:     101
 k-point ** :  -0.3750 0.4750 0.3750  plane waves:     102
 k-point ** :  -0.4750-0.4750 0.3750  plane waves:     105
 k-point ** :  -0.4250-0.4750 0.3750  plane waves:     102
 k-point ** :  -0.4250-0.4250 0.3750  plane waves:     101
 k-point ** :   0.4250 0.4250 0.4250  plane waves:     105
 k-point ** :   0.4750 0.4250 0.4250  plane waves:     105
 k-point ** :  -0.4750 0.4250 0.4250  plane waves:     103
 k-point ** :  -0.4250 0.4250 0.4250  plane waves:     101
 k-point ** :   0.4750 0.4750 0.4250  plane waves:     104
 k-point ** :  -0.4750 0.4750 0.4250  plane waves:     101
 k-point ** :  -0.4250 0.4750 0.4250  plane waves:     103
 k-point ** :  -0.4750-0.4750 0.4250  plane waves:     101
 k-point ** :   0.4750 0.4750 0.4750  plane waves:     108
 k-point ** :  -0.4750 0.4750 0.4750  plane waves:     103

 maximum and minimum number of plane-waves per node :       113       97

 maximum number of plane-waves:       113
 maximum index in each direction:
   IXMAX=    3   IYMAX=    3   IZMAX=    3
   IXMIN=   -3   IYMIN=   -3   IZMIN=   -3

 serial   3D FFT for wavefunctions
 parallel 3D FFT for charge:
    minimum data exchange during FFTs selected (reduces bandwidth)

 Broyden mixing: mesh for mixing (old mesh)
   NGX =  7   NGY =  7   NGZ =  7
  (NGX  = 20   NGY  = 20   NGZ  = 20)
  gives a total of    343 points

 initial charge density was supplied:
 charge density of overlapping atoms calculated
 number of electron       8.0000000 magnetization       3.0000000
 keeping initial charge density in first step

 Maximum index for augmentation-charges         3367 (set IRDMAX)

 First call to EWALD:  gamma=   0.816
 Maximum number of real-space cells 3x 3x 3
 Maximum number of reciprocal cells 3x 3x 3

--------------------------------------- Iteration      1(   1)  ---------------------------------------

 eigenvalue-minimisations  : 33924
 total energy-change (2. order) : 0.7068360E+01  (-0.2750760E+03)
 number of electron       8.0000000 magnetization       3.0000000
 augmentation part        8.0000000 magnetization       3.0000000

 Free energy of the ion-electron system (eV)
  alpha Z        PSCENC =        65.23405140
  Ewald energy   TEWEN  =      -612.36904855
  -Hartree energ DENC   =      -103.47262684
  -exchange      EXHF   =         0.00000000
  -V(xc)+E(xc)   XCENC  =         5.86051001
  PAW double counting   =       478.07446770     -487.43411278
  entropy T*S    EENTRO =        -0.00042289
  eigenvalues    EBANDS =        63.84518959
  atomic energy  EATOM  =       597.33035224
  Solvation  Ediel_sol  =         0.00000000
  free energy    TOTEN  =         7.06835988 eV

  energy without entropy =        7.06878277  energy(sigma->0) =        7.06850085

[...]

 eigenvalue-minimisations  : 31296
 total energy-change (2. order) :-0.1703142E+02  (-0.1584571E+02)
 number of electron       8.0000000 magnetization       3.0000000
 augmentation part        8.0000000 magnetization       3.0000000

[...]

 Broyden mixing:
  rms(total) = 0.10903E+01    rms(broyden)= 0.10900E+01
  rms(prec ) = 0.34963E+01
  weight for this iteration     100.00

[...]

 eigenvalues of (default mixing * dielectric matrix)
  average eigenvalue GAMMA=   0.9698
  0.9698

[...]

 eigenvalue-minimisations  : 15406
 total energy-change (2. order) : 0.1358183E-04  (-0.4953680E-07)
 number of electron       8.0000054 magnetization       0.1195100
 augmentation part        4.0973487 magnetization       0.0974174

[...]

 Broyden mixing:
  rms(total) = 0.47313E-02    rms(broyden)= 0.46425E-02
  rms(prec ) = 0.46635E-02
  weight for this iteration     100.00

[...]

 Broyden mixing:
  rms(total) = 0.16097E-02    rms(broyden)= 0.11608E-02
  rms(prec ) = 0.12896E-02
  weight for this iteration     100.00
  WARNING: grid for Broyden might be to small

[...]

 Broyden mixing:
  rms(total) = 0.22066E-03    rms(broyden)= 0.18492E-03
  rms(prec ) = 0.18565E-03
  weight for this iteration     100.00
  WARNING: grid for Broyden might be to small

 eigenvalues of (default mixing * dielectric matrix)
  average eigenvalue GAMMA=   3.2313
 38.3563 38.3563  3.1912  4.4257  3.7540  2.5091  2.4711  2.4711  1.5151  0.4053
  1.0085  1.0085  1.2084  1.2084  1.0735  1.0735  1.0647  0.0867  0.8064  0.8064
  0.8447  0.8447  0.2251  0.6879  0.6879  0.4533  0.4533  0.6757  0.6757  0.6125
  0.6125  0.6220  0.6220  0.5950  0.4574  0.4574

[...]

--------------------------------------- Iteration      1(  42)  ---------------------------------------

 eigenvalue-minimisations  : 15408
 total energy-change (2. order) :-0.2621312E-06  (-0.5744311E-07)
 number of electron       8.0000054 magnetization       0.0016059
 augmentation part        4.0971400 magnetization       0.0010661

 Free energy of the ion-electron system (eV)
  alpha Z        PSCENC =        65.23405140
  Ewald energy   TEWEN  =      -612.36904855
  -Hartree energ DENC   =       -86.45127939
  -exchange      EXHF   =         0.00000000
  -V(xc)+E(xc)   XCENC  =         3.78829205
  PAW double counting   =       536.29424339     -546.53176515
  entropy T*S    EENTRO =         0.00042955
  eigenvalues    EBANDS =        33.42052698
  atomic energy  EATOM  =       597.33035224
  Solvation  Ediel_sol  =         0.00000000
  free energy    TOTEN  =        -9.28419748 eV

  energy without entropy =       -9.28462704  energy(sigma->0) =       -9.28434067

 average (electrostatic) potential at core
  the test charge radii are     1.0103
  (the norm of the test charge is              1.0000)
       1 -43.2643

 E-fermi :   6.6025     XC(G=0): -14.0317     alpha+bet :-15.0175

 spin component 1

 k-point     1 :       0.0250    0.0250    0.0250
  band No.  band energies     occupation
      1      -2.1234      1.00000
      2       4.9524      1.00000
      3       4.9706      1.00000
      4       4.9706      1.00000
      5       6.5232      0.80809
      6       6.5232      0.80809
      7      29.9726      0.00000
      8      34.9554      0.00000
      9      35.3345      0.00000
     10      35.3345      0.00000

[...]

 spin component 2

[...]

 k-point   770 :      -0.4750    0.4750    0.4750
  band No.  band energies     occupation
      1       1.8451      1.00000
      2       4.8135      1.00000
      3       4.9326      1.00000
      4       6.3933      1.02927
      5       7.5786     -0.00000
      6       8.1836     -0.00000
      7      14.9488      0.00000
      8      28.3401      0.00000
      9      32.4281      0.00000
     10      32.8020      0.00000

 soft charge-density along one line, spin component           1
         0         1         2         3         4         5         6         7         8         9
 total charge-density along one line

 soft charge-density along one line, spin component           2
         0         1         2         3         4         5         6         7         8         9
 total charge-density along one line

------------------------ aborting loop because EDIFF is reached ----------------------------------------

  FORCE on cell =-STRESS in cart. coord.  units (eV):
  Direction    XX          YY          ZZ          XY          YZ          ZX
  Alpha Z    65.23405    65.23405    65.23405
  Ewald    -204.12302  -204.12302  -204.12302    -0.00000    -0.00000     0.00000
  Hartree    28.81719    28.81719    28.81719     0.00000     0.00000     0.00000
  E(xc)     -39.03112   -39.03112   -39.03112    -0.00003    -0.00003    -0.00003
  Local      61.15540    61.15540    61.15540    -0.00009    -0.00009    -0.00009
  n-local   -25.50860   -26.12276   -27.98959     1.01224    -1.00907    -0.00300
  augment    37.62297    37.62297    37.62297    -0.00007    -0.00007    -0.00007
  Kinetic    72.74366    76.10913    76.98008    -0.14919     0.15063     0.01664
  Fock        0.00000     0.00000     0.00000     0.00000     0.00000     0.00000
  Total      -1.58723    -1.58723    -1.58723     0.00000     0.00000    -0.00000
  in kB    -247.71498  -247.71498  -247.71498     0.00000     0.00000    -0.00000

 VOLUME and BASIS-vectors are now :
  energy-cutoff  :      267.97
  volume of cell :       10.27
      direct lattice vectors                 reciprocal lattice vectors
     0.000000000  1.725000000  1.725000000    -0.289855072  0.289855072  0.289855072
     1.725000000  0.000000000  1.725000000     0.289855072 -0.289855072  0.289855072
     1.725000000  1.725000000  0.000000000     0.289855072  0.289855072 -0.289855072

  length of vectors
     2.439518395  2.439518395  2.439518395     0.502043712  0.502043712  0.502043712

 FORCES acting on ions
    electron-ion (+dipol)            ewald-force                    non-local-force                 convergence-correction
   0.104E-13 0.103E-13 0.103E-13   0.935E-15 0.244E-15 -.227E-14   -.162E-26 0.485E-26 0.323E-26   0.161E-13 -.150E-13 -.217E-13
   0.104E-13 0.103E-13 0.103E-13   0.935E-15 0.244E-15 -.227E-14   -.162E-26 0.485E-26 0.323E-26   0.161E-13 -.150E-13 -.217E-13

 POSITION                                       TOTAL-FORCE (eV/Angst)
      0.00000      0.00000      0.00000         0.000000      0.000000     -0.000000
    total drift:                                0.000000     -0.000000     -0.000000

  FREE ENERGIE OF THE ION-ELECTRON SYSTEM (eV)
  free  energy   TOTEN  =        -9.28419748 eV

  energy  without entropy=       -9.28462704  energy(sigma->0) =       -9.28434067