 vasp.5.4.4.18Apr17-6-g9f103f2a35 (build May 20 2018 16:52:39) complex

 executed on             LinuxIFC date 2022.11.04  18:17:54

 INCAR:
 POTCAR:   PAW_PBE Si 05Jan2001
 POTCAR:   PAW_PBE Si 05Jan2001
   VRHFIN =Si: s2p2

   TITEL  = PAW_PBE Si 05Jan2001
   POMASS =   28.085; ZVAL   =    4.000    mass and valenz
   ENMAX  =  245.345; ENMIN  =  184.009 eV
   QCUT   =   -4.246; QGAM   =    8.493    optimization parameters

   Description
     l     E      TYP  RCUT    TYP  RCUT
     0   .000     23  1.900
     0   .000     23  1.900
     1   .000     23  1.900
     1   .000     23  1.900
     2   .000      7  1.900

 PAW_PBE Si 05Jan2001                   :

 POSCAR: sic Si
  positions in direct lattice
 exchange correlation table for  LEXCH =        8
   RHO(1)=    0.500       N(1)  =     2000
   RHO(2)=  100.500       N(2)  =     4000

 ion  position               nearest neighbor table
   1  0.000  0.000  0.000-   5 2.35   6 2.35   7 2.35   8 2.35
   2  0.500  0.500  0.000-   5 2.35   6 2.35   7 2.35   8 2.35
   3  0.000  0.500  0.500-   5 2.35   6 2.35   7 2.35   8 2.35
   4  0.500  0.000  0.500-   5 2.35   6 2.35   7 2.35   8 2.35
   5  0.250  0.250  0.250-   1 2.35   2 2.35   3 2.35   4 2.35
   6  0.750  0.750  0.250-   1 2.35   2 2.35   3 2.35   4 2.35
   7  0.250  0.750  0.750-   1 2.35   2 2.35   3 2.35   4 2.35
   8  0.750  0.250  0.750-   1 2.35   2 2.35   3 2.35   4 2.35

  LATTYP: Found a simple cubic cell.
 ALAT       =     5.4300000000

  Lattice vectors:

 A1 = (   5.4300000000,   0.0000000000,   0.0000000000)
 A2 = (   0.0000000000,   5.4300000000,   0.0000000000)
 A3 = (   0.0000000000,   0.0000000000,   5.4300000000)

Analysis of symmetry for initial positions (statically):
 Subroutine PRICEL returns following result:

  LATTYP: Found a face centered cubic cell.
 ALAT       =     5.4300000000

[...]

   4 primitive cells build up your supercell.

 Routine SETGRP: Setting up the symmetry group for a
 simple cubic supercell.

 Subroutine GETGRP returns: Found 48 space group operations
 (whereof 24 operations were pure point group operations)
 out of a pool of 48 trial point group operations.

The static configuration has the point symmetry T_d .
 The point group associated with its full space group is O_h .

Analysis of symmetry for dynamics (positions and initial velocities):
 Subroutine PRICEL returns following result:

  LATTYP: Found a face centered cubic cell.
 ALAT       =     5.4300000000

  Lattice vectors:

 A1 = (   2.7150000000,   2.7150000000,   0.0000000000)
 A2 = (   2.7150000000,   0.0000000000,  -2.7150000000)
 A3 = (   0.0000000000,   2.7150000000,  -2.7150000000)

   4 primitive cells build up your supercell.

 Routine SETGRP: Setting up the symmetry group for a
 simple cubic supercell.

 Subroutine GETGRP returns: Found 48 space group operations
 (whereof 24 operations were pure point group operations)
 out of a pool of 48 trial point group operations.

The dynamic configuration has the point symmetry T_d .
 The point group associated with its full space group is O_h .

 Subroutine INISYM returns: Found 48 space group operations
 (whereof 24 operations are pure point group operations),
 and found     4 'primitive' translations

 KPOINTS: 16*16*16

Automatic generation of k-mesh.
Space group operators:
 irot       det(A)        alpha          n_x          n_y          n_z        tau_x        tau_y        tau_z
    1     1.000000     0.000001     1.000000     0.000000     0.000000     0.000000     0.000000     0.000000
    2     1.000000   120.000000    -0.577350    -0.577350    -0.577350     0.000000     0.000000     0.000000
    3     1.000000   120.000000     0.577350     0.577350     0.577350     0.000000     0.000000     0.000000
    4    -1.000000    90.000000     0.000000     0.000000    -1.000000     0.000000     0.000000     0.000000
    5    -1.000000   180.000000     0.000000     0.707107     0.707107     0.000000     0.000000     0.000000
    6    -1.000000    90.000000     0.000000     1.000000     0.000000     0.000000     0.000000     0.000000
    7     1.000000   180.000000     0.000000     0.000000     1.000000     0.000000     0.000000     0.000000
    8     1.000000   120.000000    -0.577350     0.577350     0.577350     0.000000     0.000000     0.000000
    9     1.000000   120.000000    -0.577350     0.577350    -0.577350     0.000000     0.000000     0.000000
   10    -1.000000    90.000000     0.000000     0.000000     1.000000     0.000000     0.000000     0.000000
   11    -1.000000    90.000000    -1.000000     0.000000     0.000000     0.000000     0.000000     0.000000
   12    -1.000000   180.000000     0.707107     0.000000     0.707107     0.000000     0.000000     0.000000
   13     1.000000   120.000000     0.577350    -0.577350     0.577350     0.000000     0.000000     0.000000
   14     1.000000   120.000000    -0.577350    -0.577350     0.577350     0.000000     0.000000     0.000000
   15     1.000000   180.000000     1.000000     0.000000     0.000000     0.000000     0.000000     0.000000
   16    -1.000000    90.000000     0.000000    -1.000000     0.000000     0.000000     0.000000     0.000000
   17    -1.000000   180.000000     0.707107     0.707107     0.000000     0.000000     0.000000     0.000000
   18    -1.000000    90.000000     1.000000     0.000000     0.000000     0.000000     0.000000     0.000000
   19     1.000000   120.000000     0.577350    -0.577350    -0.577350     0.000000     0.000000     0.000000
   20     1.000000   180.000000     0.000000     1.000000     0.000000     0.000000     0.000000     0.000000
   21     1.000000   120.000000     0.577350     0.577350    -0.577350     0.000000     0.000000     0.000000
   22    -1.000000   180.000000     0.000000    -0.707107     0.707107     0.000000     0.000000     0.000000
   23    -1.000000   180.000000     0.707107    -0.707107     0.000000     0.000000     0.000000     0.000000
   24    -1.000000   180.000000     0.707107     0.000000    -0.707107     0.000000     0.000000     0.000000
   25    -1.000000     0.000001     1.000000     0.000000     0.000000     0.750000     0.750000    -0.750000
   26    -1.000000   120.000000    -0.577350    -0.577350    -0.577350     0.750000     0.750000    -0.750000
   27    -1.000000   120.000000     0.577350     0.577350     0.577350     0.750000     0.750000    -0.750000
   28     1.000000    90.000000     0.000000     0.000000    -1.000000     0.750000     0.750000    -0.750000
   29     1.000000   180.000000     0.000000     0.707107     0.707107     0.750000     0.750000    -0.750000
   30     1.000000    90.000000     0.000000     1.000000     0.000000     0.750000     0.750000    -0.750000
   31    -1.000000   180.000000     0.000000     0.000000     1.000000     0.750000     0.750000    -0.750000
   32    -1.000000   120.000000    -0.577350     0.577350     0.577350     0.750000     0.750000    -0.750000
   33    -1.000000   120.000000    -0.577350     0.577350    -0.577350     0.750000     0.750000    -0.750000
   34     1.000000    90.000000     0.000000     0.000000     1.000000     0.750000     0.750000    -0.750000
   35     1.000000    90.000000    -1.000000     0.000000     0.000000     0.750000     0.750000    -0.750000
   36     1.000000   180.000000     0.707107     0.000000     0.707107     0.750000     0.750000    -0.750000
   37    -1.000000   120.000000     0.577350    -0.577350     0.577350     0.750000     0.750000    -0.750000
   38    -1.000000   120.000000    -0.577350    -0.577350     0.577350     0.750000     0.750000    -0.750000
   39    -1.000000   180.000000     1.000000     0.000000     0.000000     0.750000     0.750000    -0.750000
   40     1.000000    90.000000     0.000000    -1.000000     0.000000     0.750000     0.750000    -0.750000
   41     1.000000   180.000000     0.707107     0.707107     0.000000     0.750000     0.750000    -0.750000
   42     1.000000    90.000000     1.000000     0.000000     0.000000     0.750000     0.750000    -0.750000
   43    -1.000000   120.000000     0.577350    -0.577350    -0.577350     0.750000     0.750000    -0.750000
   44    -1.000000   180.000000     0.000000     1.000000     0.000000     0.750000     0.750000    -0.750000
   45    -1.000000   120.000000     0.577350     0.577350    -0.577350     0.750000     0.750000    -0.750000
   46     1.000000   180.000000     0.000000    -0.707107     0.707107     0.750000     0.750000    -0.750000
   47     1.000000   180.000000     0.707107    -0.707107     0.000000     0.750000     0.750000    -0.750000
   48     1.000000   180.000000     0.707107     0.000000    -0.707107     0.750000     0.750000    -0.750000

 Subroutine IBZKPT returns following result:

 Found    165 irreducible k-points:

 Following reciprocal coordinates:
            Coordinates               Weight
  0.000000  0.000000  0.000000      1.000000
  0.062500  0.000000  0.000000      6.000000
  0.125000  0.000000  0.000000      6.000000
  0.187500  0.000000  0.000000      6.000000
  0.250000  0.000000  0.000000      6.000000
  0.312500  0.000000  0.000000      6.000000
  0.375000  0.000000  0.000000      6.000000
  0.437500  0.000000  0.000000      6.000000
  0.500000  0.000000  0.000000      3.000000
  0.062500  0.062500  0.000000     12.000000
  0.125000  0.062500  0.000000     24.000000
  0.187500  0.062500  0.000000     24.000000
  0.250000  0.062500  0.000000     24.000000
  0.312500  0.062500  0.000000     24.000000
  0.375000  0.062500  0.000000     24.000000
  0.437500  0.062500  0.000000     24.000000
  0.500000  0.062500  0.000000     12.000000
  0.125000  0.125000  0.000000     12.000000
  0.187500  0.125000  0.000000     24.000000
  0.250000  0.125000  0.000000     24.000000
  0.312500  0.125000  0.000000     24.000000
  0.375000  0.125000  0.000000     24.000000
  0.437500  0.125000  0.000000     24.000000
  0.500000  0.125000  0.000000     12.000000
  0.187500  0.187500  0.000000     12.000000
  0.250000  0.187500  0.000000     24.000000
  0.312500  0.187500  0.000000     24.000000
  0.375000  0.187500  0.000000     24.000000
  0.437500  0.187500  0.000000     24.000000
  0.500000  0.187500  0.000000     12.000000
  0.250000  0.250000  0.000000     12.000000
  0.312500  0.250000  0.000000     24.000000
  0.375000  0.250000  0.000000     24.000000
  0.437500  0.250000  0.000000     24.000000
  0.500000  0.250000  0.000000     12.000000
  0.312500  0.312500  0.000000     12.000000
  0.375000  0.312500  0.000000     24.000000
  0.437500  0.312500  0.000000     24.000000
  0.500000  0.312500  0.000000     12.000000
  0.375000  0.375000  0.000000     12.000000
  0.437500  0.375000  0.000000     24.000000
  0.500000  0.375000  0.000000     12.000000
  0.437500  0.437500  0.000000     12.000000
  0.500000  0.437500  0.000000     12.000000
  0.500000  0.500000  0.000000      3.000000
  0.062500  0.062500  0.062500      8.000000
  0.125000  0.062500  0.062500     24.000000
  0.187500  0.062500  0.062500     24.000000
  0.250000  0.062500  0.062500     24.000000
  0.312500  0.062500  0.062500     24.000000
  0.375000  0.062500  0.062500     24.000000
  0.437500  0.062500  0.062500     24.000000
[...]
 k-point 32 :   0.3125 0.2500 0.0000  plane waves:    1886
 k-point 33 :   0.3750 0.2500 0.0000  plane waves:    1890
 k-point 34 :   0.4375 0.2500 0.0000  plane waves:    1893
 k-point 35 :   0.5000 0.2500 0.0000  plane waves:    1868
 k-point 36 :   0.3125 0.3125 0.0000  plane waves:    1885
 k-point 37 :   0.3750 0.3125 0.0000  plane waves:    1889
 k-point 38 :   0.4375 0.3125 0.0000  plane waves:    1897
 k-point 39 :   0.5000 0.3125 0.0000  plane waves:    1892
 k-point 40 :   0.3750 0.3750 0.0000  plane waves:    1897
 k-point 41 :   0.4375 0.3750 0.0000  plane waves:    1897
 k-point 42 :   0.5000 0.3750 0.0000  plane waves:    1896
 k-point 43 :   0.4375 0.4375 0.0000  plane waves:    1904
 k-point 44 :   0.5000 0.4375 0.0000  plane waves:    1902
 k-point 45 :   0.5000 0.5000 0.0000  plane waves:    1924
 k-point 46 :   0.0625 0.0625 0.0625  plane waves:    1893
 k-point 47 :   0.1250 0.0625 0.0625  plane waves:    1887
 k-point 48 :   0.1875 0.0625 0.0625  plane waves:    1887
 k-point 49 :   0.2500 0.0625 0.0625  plane waves:    1895
 k-point 50 :   0.3125 0.0625 0.0625  plane waves:    1893
 k-point 51 :   0.3750 0.0625 0.0625  plane waves:    1893
 k-point 52 :   0.4375 0.0625 0.0625  plane waves:    1885
 k-point 53 :   0.5000 0.0625 0.0625  plane waves:    1896
 k-point 54 :   0.1250 0.1250 0.0625  plane waves:    1885
 k-point 55 :   0.1875 0.1250 0.0625  plane waves:    1891
 k-point 56 :   0.2500 0.1250 0.0625  plane waves:    1895
 k-point 57 :   0.3125 0.1250 0.0625  plane waves:    1896
 k-point 58 :   0.3750 0.1250 0.0625  plane waves:    1891
 k-point 59 :   0.4375 0.1250 0.0625  plane waves:    1889
 k-point 60 :   0.5000 0.1250 0.0625  plane waves:    1894
[...]
 k-point 85 :   0.3125 0.1250 0.1250  plane waves:    1895
 k-point 86 :   0.3750 0.1250 0.1250  plane waves:    1890
 k-point 87 :   0.4375 0.1250 0.1250  plane waves:    1893
 k-point 88 :   0.5000 0.1250 0.1250  plane waves:    1902
 k-point 89 :   0.1875 0.1875 0.1250  plane waves:    1894
 k-point 90 :   0.2500 0.1875 0.1250  plane waves:    1893
 k-point 91 :   0.3125 0.1875 0.1250  plane waves:    1892
 k-point 92 :   0.3750 0.1875 0.1250  plane waves:    1886
 k-point 93 :   0.4375 0.1875 0.1250  plane waves:    1893
 k-point 94 :   0.5000 0.1875 0.1250  plane waves:    1902
 k-point 95 :   0.2500 0.2500 0.1250  plane waves:    1889
 k-point 96 :   0.3125 0.2500 0.1250  plane waves:    1893
 k-point 97 :   0.3750 0.2500 0.1250  plane waves:    1891
 k-point 98 :   0.4375 0.2500 0.1250  plane waves:    1894
 k-point 99 :   0.5000 0.2500 0.1250  plane waves:    1890
 k-point ** :   0.3125 0.3125 0.1250  plane waves:    1883
 k-point ** :   0.3750 0.3125 0.1250  plane waves:    1892
 k-point ** :   0.4375 0.3125 0.1250  plane waves:    1892
 k-point ** :   0.5000 0.3125 0.1250  plane waves:    1888
 k-point ** :   0.3750 0.3750 0.1250  plane waves:    1889
 k-point ** :   0.4375 0.3750 0.1250  plane waves:    1888
 k-point ** :   0.5000 0.3750 0.1250  plane waves:    1880
 k-point ** :   0.4375 0.4375 0.1250  plane waves:    1893
 k-point ** :   0.5000 0.4375 0.1250  plane waves:    1886
 k-point ** :   0.5000 0.5000 0.1250  plane waves:    1892
 k-point ** :   0.1875 0.1875 0.1875  plane waves:    1893
 k-point ** :   0.2500 0.1875 0.1875  plane waves:    1892
 k-point ** :   0.3125 0.1875 0.1875  plane waves:    1890
 k-point ** :   0.3750 0.1875 0.1875  plane waves:    1885
 k-point ** :   0.4375 0.1875 0.1875  plane waves:    1888
 k-point ** :   0.5000 0.1875 0.1875  plane waves:    1896
 k-point ** :   0.2500 0.2500 0.1875  plane waves:    1888
 k-point ** :   0.3125 0.2500 0.1875  plane waves:    1885
 k-point ** :   0.3750 0.2500 0.1875  plane waves:    1881
 k-point ** :   0.4375 0.2500 0.1875  plane waves:    1895
 k-point ** :   0.5000 0.2500 0.1875  plane waves:    1892
 k-point ** :   0.3125 0.3125 0.1875  plane waves:    1884
 k-point ** :   0.3750 0.3125 0.1875  plane waves:    1887
 k-point ** :   0.4375 0.3125 0.1875  plane waves:    1883
 k-point ** :   0.5000 0.3125 0.1875  plane waves:    1886
 k-point ** :   0.3750 0.3750 0.1875  plane waves:    1891
 k-point ** :   0.4375 0.3750 0.1875  plane waves:    1889
 k-point ** :   0.5000 0.3750 0.1875  plane waves:    1888
 k-point ** :   0.4375 0.4375 0.1875  plane waves:    1885
 k-point ** :   0.5000 0.4375 0.1875  plane waves:    1876
 k-point ** :   0.5000 0.5000 0.1875  plane waves:    1880
 k-point ** :   0.2500 0.2500 0.2500  plane waves:    1899
 k-point ** :   0.3125 0.2500 0.2500  plane waves:    1887
 k-point ** :   0.3750 0.2500 0.2500  plane waves:    1892
 k-point ** :   0.4375 0.2500 0.2500  plane waves:    1882
 k-point ** :   0.5000 0.2500 0.2500  plane waves:    1882
 k-point ** :   0.3125 0.3125 0.2500  plane waves:    1886
 k-point ** :   0.3750 0.3125 0.2500  plane waves:    1887
 k-point ** :   0.4375 0.3125 0.2500  plane waves:    1879
 k-point ** :   0.5000 0.3125 0.2500  plane waves:    1886
 k-point ** :   0.3750 0.3750 0.2500  plane waves:    1883
 k-point ** :   0.4375 0.3750 0.2500  plane waves:    1881
 k-point ** :   0.5000 0.3750 0.2500  plane waves:    1880
 k-point ** :   0.4375 0.4375 0.2500  plane waves:    1879
 k-point ** :   0.5000 0.4375 0.2500  plane waves:    1884
 k-point ** :   0.5000 0.5000 0.2500  plane waves:    1876
 k-point ** :   0.3125 0.3125 0.3125  plane waves:    1887
 k-point ** :   0.3750 0.3125 0.3125  plane waves:    1876
 k-point ** :   0.4375 0.3125 0.3125  plane waves:    1884
 k-point ** :   0.5000 0.3125 0.3125  plane waves:    1886
 k-point ** :   0.3750 0.3750 0.3125  plane waves:    1883
 k-point ** :   0.4375 0.3750 0.3125  plane waves:    1880
 k-point ** :   0.5000 0.3750 0.3125  plane waves:    1872
 k-point ** :   0.4375 0.4375 0.3125  plane waves:    1877
 k-point ** :   0.5000 0.4375 0.3125  plane waves:    1886
 k-point ** :   0.5000 0.5000 0.3125  plane waves:    1880
 k-point ** :   0.3750 0.3750 0.3750  plane waves:    1875
 k-point ** :   0.4375 0.3750 0.3750  plane waves:    1879
 k-point ** :   0.5000 0.3750 0.3750  plane waves:    1888
 k-point ** :   0.4375 0.4375 0.3750  plane waves:    1884
 k-point ** :   0.5000 0.4375 0.3750  plane waves:    1884
 k-point ** :   0.5000 0.5000 0.3750  plane waves:    1880
 k-point ** :   0.4375 0.4375 0.4375  plane waves:    1880
 k-point ** :   0.5000 0.4375 0.4375  plane waves:    1880
 k-point ** :   0.5000 0.5000 0.4375  plane waves:    1880
 k-point ** :   0.5000 0.5000 0.5000  plane waves:    1904

 maximum and minimum number of plane-waves per node :      1924     1863

 maximum number of plane-waves:      1924
 maximum index in each direction:
   IXMAX=    7   IYMAX=    7   IZMAX=    7
   IXMIN=   -8   IYMIN=   -8   IZMIN=   -8

 serial   3D FFT for wavefunctions
 parallel 3D FFT for charge:
    minimum data exchange during FFTs selected (reduces bandwidth)

 Broyden mixing: mesh for mixing (old mesh)
   NGX = 15   NGY = 15   NGZ = 15
  (NGX  = 48   NGY  = 48   NGZ  = 48)
  gives a total of   3375 points

 initial charge density was supplied:
 charge density of overlapping atoms calculated
 number of electron      32.0000000 magnetization
 keeping initial charge density in first step

 Maximum index for augmentation-charges         2801 (set IRDMAX)

 First call to EWALD:  gamma=   0.326
 Maximum number of real-space cells 3x 3x 3
 Maximum number of reciprocal cells 3x 3x 3

--------------------------------------- Iteration      1(   1)  ---------------------------------------

 BZINTS: Fermi energy: 11.405045; 32.000000 electrons
         Band energy: 104.760574;  BLOECHL correction: -0.125129

 eigenvalue-minimisations  :  6930
 total energy-change (2. order) : 0.5081685E+02  (-0.8814455E+03)
 number of electron      32.0000000 magnetization
 augmentation part       32.0000000 magnetization

 Free energy of the ion-electron system (eV)
  alpha Z        PSCENC =        13.45656811
  Ewald energy   TEWEN  =      -914.25413255
  -Hartree energ DENC   =       -44.00432972
  -exchange      EXHF   =         0.00000000
  -V(xc)+E(xc)   XCENC  =       -74.40730106
  PAW double counting   =       263.82083246     -123.07410713
  entropy T*S    EENTRO =         0.00000000
  eigenvalues    EBANDS =       104.76057444
  atomic energy  EATOM  =       824.51874349
  Solvation  Ediel_sol  =         0.00000000
  free energy    TOTEN  =        50.81684803 eV

  energy without entropy =       50.81684803  energy(sigma->0) =       50.81684803

[...]

 eigenvalue-minimisations  :  9507
 total energy-change (2. order) :-0.9081576E+02  (-0.8606949E+02)
 number of electron      32.0000000 magnetization
 augmentation part       32.0000000 magnetization

[...]

 Broyden mixing:
  rms(total) = 0.60104E+00    rms(broyden)= 0.60103E+00
  rms(prec ) = 0.11201E+01
  weight for this iteration     100.00

[...]

 eigenvalues of (default mixing * dielectric matrix)
  average eigenvalue GAMMA=   2.4449
  2.4449

[...]

 eigenvalue-minimisations  :  7793
 total energy-change (2. order) : 0.2277553E+00  (-0.5463039E-01)
 number of electron      32.0000059 magnetization
 augmentation part       -1.8306994 magnetization

[...]

 Broyden mixing:
  rms(total) = 0.11605E-03    rms(broyden)= 0.11602E-03
  rms(prec ) = 0.16505E-03
  weight for this iteration     100.00

 eigenvalues of (default mixing * dielectric matrix)
  average eigenvalue GAMMA=   2.0825
  3.3382  2.7152  2.3918  2.0972  0.9763  0.9763

[...]

--------------------------------------- Iteration      1(  12)  ---------------------------------------

 BZINTS: Fermi energy:  5.856372; 32.000000 electrons
         Band energy:  24.579463;  BLOECHL correction:  0.000000

 eigenvalue-minimisations  :  8495
 total energy-change (2. order) :-0.7826179E-07  (-0.6584738E-07)
 number of electron      32.0000059 magnetization
 augmentation part       -1.8344898 magnetization

 Free energy of the ion-electron system (eV)
  alpha Z        PSCENC =        13.45656811
  Ewald energy   TEWEN  =      -914.25413255
  -Hartree energ DENC   =       -59.65496172
  -exchange      EXHF   =         0.00000000
  -V(xc)+E(xc)   XCENC  =       -71.84011094
  PAW double counting   =       297.99102454     -158.14991394
  entropy T*S    EENTRO =         0.00000000
  eigenvalues    EBANDS =        24.57946264
  atomic energy  EATOM  =       824.51874349
  Solvation  Ediel_sol  =         0.00000000
  free energy    TOTEN  =       -43.35332037 eV

  energy without entropy =      -43.35332037  energy(sigma->0) =      -43.35332037

 average (electrostatic) potential at core
  the test charge radii are     0.9892
  (the norm of the test charge is              1.0000)
       1 -83.2455       2 -83.2455       3 -83.2455       4 -83.2455       5 -83.2455
       6 -83.2455       7 -83.2455       8 -83.2455

 E-fermi :   5.8564     XC(G=0):  -9.4110     alpha+bet :-11.9845

 k-point     1 :       0.0000    0.0000    0.0000
  band No.  band energies     occupation
      1      -6.1305      2.00000
      2      -1.9845      2.00000
      3      -1.9845      2.00000
      4      -1.9845      2.00000
      5      -1.9845      2.00000
      6      -1.9845      2.00000
      7      -1.9845      2.00000
      8       2.9801      2.00000
      9       2.9801      2.00000
     10       2.9801      2.00000
     11       2.9801      2.00000
     12       2.9801      2.00000
     13       2.9801      2.00000
     14       5.8331      2.00000
     15       5.8331      2.00000
     16       5.8331      2.00000
     17       6.5442      0.00000
     18       6.5442      0.00000
     19       6.5442      0.00000
     20       6.5442      0.00000
     21       6.5442      0.00000

[...]

 k-point   165 :       0.5000    0.5000    0.5000
  band No.  band energies     occupation
      1      -3.7980      2.00000
      2      -3.7980      2.00000
      3      -3.7980      2.00000
      4      -3.7980      2.00000
      5      -1.1375      2.00000
      6      -1.1375      2.00000
      7      -1.1375      2.00000
      8      -1.1375      2.00000
      9       4.6337      2.00000
     10       4.6337      2.00000
     11       4.6337      2.00000
     12       4.6337      2.00000
     13       4.6337      2.00000
     14       4.6337      2.00000
     15       4.6337      2.00000
     16       4.6337      2.00000
     17       7.3755      0.00000
     18       7.3755      0.00000
     19       7.3755      0.00000
     20       7.3755      0.00000
     21       9.1773      0.00000

 soft charge-density along one line, spin component           1
         0         1         2         3         4         5         6         7         8         9
 total charge-density along one line

------------------------ aborting loop because EDIFF is reached ----------------------------------------

  FORCE on cell =-STRESS in cart. coord.  units (eV):
  Direction    XX          YY          ZZ          XY          YZ          ZX
  Alpha Z    13.45657    13.45657    13.45657
  Ewald    -304.75190  -304.75190  -304.75190     0.00000    -0.00000    -0.00000
  Hartree    19.88426    19.88426    19.88426    -0.00000    -0.00000    -0.00000
  E(xc)    -101.50777  -101.50777  -101.50777    -0.00000     0.00000    -0.00000
  Local    -117.04482  -117.04482  -117.04482    -0.00000     0.00000    -0.00000
  n-local   311.51682   315.01664   308.17283    -2.89258    -2.39171    -1.45366
  augment   -46.58994   -46.58994   -46.58994     0.00000    -0.00000     0.00000
  Kinetic   219.36670   231.47564   229.70340    -3.59260    -5.47217    -2.42938
  Fock        0.00000     0.00000     0.00000     0.00000     0.00000     0.00000
  Total       1.86375     1.86375     1.86375     0.00000     0.00000    -0.00000
  in kB      18.65084    18.65084    18.65084     0.00000     0.00000    -0.00000

 VOLUME and BASIS-vectors are now :
  energy-cutoff  :      300.00
  volume of cell :      160.10
      direct lattice vectors                 reciprocal lattice vectors
     5.430000000  0.000000000  0.000000000     0.184162063  0.000000000  0.000000000
     0.000000000  5.430000000  0.000000000     0.000000000  0.184162063  0.000000000
     0.000000000  0.000000000  5.430000000     0.000000000  0.000000000  0.184162063

  length of vectors
     5.430000000  5.430000000  5.430000000     0.184162063  0.184162063  0.184162063

 FORCES acting on ions
    electron-ion (+dipol)            ewald-force                    non-local-force                 convergence-correction
   -.187E-14 -.348E-14 -.245E-14   -.355E-14 -.711E-14 -.355E-14   0.156E-16 0.867E-18 0.330E-16   -.125E-15 -.463E-15 -.348E-15
   -.252E-13 -.152E-12 0.812E-15   -.355E-14 -.711E-14 -.355E-14   0.330E-16 0.867E-18 0.399E-16   0.461E-15 0.613E-15 -.701E-16
   -.614E-14 -.164E-13 -.152E-13   -.355E-14 -.711E-14 0.355E-14   -.139E-16 -.330E-16 0.113E-16   0.548E-15 0.337E-15 -.432E-16
   -.160E-13 0.299E-15 -.151E-12   -.355E-14 -.711E-14 0.355E-14   -.520E-17 -.330E-16 0.113E-16   0.110E-14 -.675E-15 0.114E-15
   -.687E-14 -.961E-15 -.302E-14   0.270E-14 0.728E-14 0.327E-14   -.330E-16 -.304E-17 -.408E-16   0.394E-14 -.207E-15 -.492E-15
   -.146E-13 -.112E-12 0.912E-13   0.381E-14 0.812E-14 0.327E-14   0.000E+00 -.108E-16 -.390E-16   -.110E-13 0.279E-15 -.625E-15
   -.118E-13 -.353E-13 -.340E-13   0.330E-14 0.677E-14 -.334E-14   0.781E-17 0.117E-16 -.694E-17   0.409E-14 -.111E-15 -.717E-15
   -.193E-13 0.912E-13 -.111E-12   0.441E-14 0.629E-14 -.334E-14   0.147E-16 0.737E-17 -.867E-17   -.107E-13 -.112E-14 -.764E-15
   -.102E-12 -.229E-12 -.225E-12   0.120E-16 0.458E-16 -.140E-15   0.191E-16 -.590E-16 0.000E+00   -.118E-13 -.135E-14 -.294E-14

 POSITION                                       TOTAL-FORCE (eV/Angst)
      0.00000      0.00000      0.00000         0.000000      0.000000     -0.000000
      2.71500      2.71500      0.00000         0.000000     -0.000000     -0.000000
      0.00000      2.71500      2.71500        -0.000000     -0.000000     -0.000000
      2.71500      0.00000      2.71500         0.000000     -0.000000     -0.000000
      1.35750      1.35750      1.35750        -0.000000      0.000000      0.000000
      4.07250      4.07250      1.35750        -0.000000      0.000000      0.000000
      1.35750      4.07250      4.07250        -0.000000      0.000000      0.000000
      4.07250      1.35750      4.07250         0.000000      0.000000      0.000000
    total drift:                               -0.000000     -0.000000     -0.000000

  FREE ENERGIE OF THE ION-ELECTRON SYSTEM (eV)
  free  energy   TOTEN  =       -43.35332037 eV

  energy  without entropy=      -43.35332037  energy(sigma->0) =      -43.35332037

 writing wavefunctions
 BZINTS: Fermi energy:  5.856372; 32.000000 electrons
         Band energy:  24.579463;  BLOECHL correction:  0.000000