 vasp.5.4.4.18Apr17-6-g9f103f2a35 (build May 20 2018 16:52:39) complex

 executed on             LinuxIFC date 2022.10.30  23:19:54

 INCAR:
 POTCAR:    PAW Fe
 POTCAR:    PAW Fe
   VRHFIN =Fe:  d7 s1

   TITEL  = PAW Fe
   POMASS =   55.847; ZVAL   =    8.000    mass and valenz
   ENMAX  =  267.969; ENMIN  =  200.977 eV
   QCUT   =   -4.438; QGAM   =    8.876    optimization parameters

   Description
     l     E      TYP  RCUT    TYP  RCUT
     2   .000     23  2.300
     2   .000     23  2.300
     0   .000     23  2.300
     0   .000     23  2.300
     1  -.200     23  2.300
     1   .000     23  2.300
     3   .000      7   .000

  PAW Fe                                :

 POSCAR: Fe bulk bcc
  positions in direct lattice
 exchange correlation table for  LEXCH =        2
   RHO(1)=    0.500       N(1)  =     2000
   RHO(2)=  100.500       N(2)  =     4000

 ion  position               nearest neighbor table
   1  0.000  0.000  0.000-

  LATTYP: Found a body centered cubic cell.
 ALAT       =     2.7800000000

  Lattice vectors:

 A1 = (  -1.3900000000,   1.3900000000,   1.3900000000)
 A2 = (   1.3900000000,  -1.3900000000,   1.3900000000)
 A3 = (   1.3900000000,   1.3900000000,  -1.3900000000)

Analysis of symmetry for initial positions (statically):
 Subroutine PRICEL returns:
 Original cell was already a primitive cell.

 Routine SETGRP: Setting up the symmetry group for a
 body centered cubic supercell.

 Subroutine GETGRP returns: Found 48 space group operations
 (whereof 48 operations were pure point group operations)
 out of a pool of 48 trial point group operations.

The static configuration has the point symmetry O_h .

Analysis of symmetry for dynamics (positions and initial velocities):
 Subroutine PRICEL returns:
 Original cell was already a primitive cell.

 Routine SETGRP: Setting up the symmetry group for a
 body centered cubic supercell.

 Subroutine GETGRP returns: Found 48 space group operations
 (whereof 48 operations were pure point group operations)
 out of a pool of 48 trial point group operations.

The dynamic configuration has the point symmetry O_h .

 Subroutine INISYM returns: Found 48 space group operations
 (whereof 48 operations are pure point group operations),
 and found     1 'primitive' translations

 KPOINTS: 30x30x30

Automatic generation of k-mesh.
Space group operators:
 irot       det(A)        alpha          n_x          n_y          n_z        tau_x        tau_y        tau_z
    1     1.000000     0.000000     1.000000     0.000000     0.000000     0.000000     0.000000     0.000000
    2    -1.000000     0.000000     1.000000     0.000000     0.000000     0.000000     0.000000     0.000000
    3     1.000000   120.000000    -0.577350    -0.577350    -0.577350     0.000000     0.000000     0.000000
    4    -1.000000   120.000000    -0.577350    -0.577350    -0.577350     0.000000     0.000000     0.000000
    5     1.000000   120.000000     0.577350     0.577350     0.577350     0.000000     0.000000     0.000000
    6    -1.000000   120.000000     0.577350     0.577350     0.577350     0.000000     0.000000     0.000000
    7     1.000000    90.000000     0.000000     0.000000    -1.000000     0.000000     0.000000     0.000000
    8    -1.000000    90.000000     0.000000     0.000000    -1.000000     0.000000     0.000000     0.000000
    9     1.000000   180.000000     0.000000     0.707107     0.707107     0.000000     0.000000     0.000000
   10    -1.000000   180.000000     0.000000     0.707107     0.707107     0.000000     0.000000     0.000000
   11     1.000000    90.000000     0.000000     1.000000     0.000000     0.000000     0.000000     0.000000
   12    -1.000000    90.000000     0.000000     1.000000     0.000000     0.000000     0.000000     0.000000
   13     1.000000   180.000000     0.000000     0.000000     1.000000     0.000000     0.000000     0.000000
   14    -1.000000   180.000000     0.000000     0.000000     1.000000     0.000000     0.000000     0.000000
   15     1.000000   120.000000    -0.577350     0.577350     0.577350     0.000000     0.000000     0.000000
   16    -1.000000   120.000000    -0.577350     0.577350     0.577350     0.000000     0.000000     0.000000
   17     1.000000   120.000000    -0.577350     0.577350    -0.577350     0.000000     0.000000     0.000000
   18    -1.000000   120.000000    -0.577350     0.577350    -0.577350     0.000000     0.000000     0.000000
   19     1.000000    90.000000     0.000000     0.000000     1.000000     0.000000     0.000000     0.000000
   20    -1.000000    90.000000     0.000000     0.000000     1.000000     0.000000     0.000000     0.000000
   21     1.000000    90.000000    -1.000000     0.000000     0.000000     0.000000     0.000000     0.000000
   22    -1.000000    90.000000    -1.000000     0.000000     0.000000     0.000000     0.000000     0.000000
   23     1.000000   180.000000     0.707107     0.000000     0.707107     0.000000     0.000000     0.000000
   24    -1.000000   180.000000     0.707107     0.000000     0.707107     0.000000     0.000000     0.000000
   25     1.000000   120.000000     0.577350    -0.577350     0.577350     0.000000     0.000000     0.000000
   26    -1.000000   120.000000     0.577350    -0.577350     0.577350     0.000000     0.000000     0.000000
   27     1.000000   120.000000    -0.577350    -0.577350     0.577350     0.000000     0.000000     0.000000
   28    -1.000000   120.000000    -0.577350    -0.577350     0.577350     0.000000     0.000000     0.000000
   29     1.000000   180.000000     1.000000     0.000000     0.000000     0.000000     0.000000     0.000000
   30    -1.000000   180.000000     1.000000     0.000000     0.000000     0.000000     0.000000     0.000000
   31     1.000000    90.000000     0.000000    -1.000000     0.000000     0.000000     0.000000     0.000000
   32    -1.000000    90.000000     0.000000    -1.000000     0.000000     0.000000     0.000000     0.000000
   33     1.000000   180.000000     0.707107     0.707107     0.000000     0.000000     0.000000     0.000000
   34    -1.000000   180.000000     0.707107     0.707107     0.000000     0.000000     0.000000     0.000000
   35     1.000000    90.000000     1.000000     0.000000     0.000000     0.000000     0.000000     0.000000
   36    -1.000000    90.000000     1.000000     0.000000     0.000000     0.000000     0.000000     0.000000
   37     1.000000   120.000000     0.577350    -0.577350    -0.577350     0.000000     0.000000     0.000000
   38    -1.000000   120.000000     0.577350    -0.577350    -0.577350     0.000000     0.000000     0.000000
   39     1.000000   180.000000     0.000000     1.000000     0.000000     0.000000     0.000000     0.000000
   40    -1.000000   180.000000     0.000000     1.000000     0.000000     0.000000     0.000000     0.000000
   41     1.000000   120.000000     0.577350     0.577350    -0.577350     0.000000     0.000000     0.000000
   42    -1.000000   120.000000     0.577350     0.577350    -0.577350     0.000000     0.000000     0.000000
   43     1.000000   180.000000     0.000000    -0.707107     0.707107     0.000000     0.000000     0.000000
   44    -1.000000   180.000000     0.000000    -0.707107     0.707107     0.000000     0.000000     0.000000
   45     1.000000   180.000000     0.707107    -0.707107     0.000000     0.000000     0.000000     0.000000
   46    -1.000000   180.000000     0.707107    -0.707107     0.000000     0.000000     0.000000     0.000000
   47     1.000000   180.000000     0.707107     0.000000    -0.707107     0.000000     0.000000     0.000000
   48    -1.000000   180.000000     0.707107     0.000000    -0.707107     0.000000     0.000000     0.000000

 Subroutine IBZKPT returns following result:

 Found    744 irreducible k-points:

 Following reciprocal coordinates:
            Coordinates               Weight
  0.016667  0.016667  0.016667      8.000000
  0.050000  0.016667  0.016667     24.000000
  0.083333  0.016667  0.016667     24.000000
  0.116667  0.016667  0.016667     24.000000
  0.150000  0.016667  0.016667     24.000000
  0.183333  0.016667  0.016667     24.000000
  0.216667  0.016667  0.016667     24.000000
  0.250000  0.016667  0.016667     24.000000
  0.283333  0.016667  0.016667     24.000000
  0.316667  0.016667  0.016667     24.000000
  0.350000  0.016667  0.016667     24.000000
  0.383333  0.016667  0.016667     24.000000
  0.416667  0.016667  0.016667     24.000000
  0.450000  0.016667  0.016667     24.000000
  0.483333  0.016667  0.016667     12.000000
 -0.016667  0.016667  0.016667      6.000000
  0.050000  0.050000  0.016667     24.000000
  0.083333  0.050000  0.016667     48.000000
  0.116667  0.050000  0.016667     48.000000
  0.150000  0.050000  0.016667     48.000000
  0.183333  0.050000  0.016667     48.000000
  0.216667  0.050000  0.016667     48.000000
  0.250000  0.050000  0.016667     48.000000
  0.283333  0.050000  0.016667     48.000000
  0.316667  0.050000  0.016667     48.000000
  0.350000  0.050000  0.016667     48.000000
  0.383333  0.050000  0.016667     48.000000
  0.416667  0.050000  0.016667     48.000000
  0.450000  0.050000  0.016667     48.000000
 -0.050000  0.050000  0.016667     24.000000
  0.083333  0.083333  0.016667     24.000000
  0.116667  0.083333  0.016667     48.000000
  0.150000  0.083333  0.016667     48.000000
  0.183333  0.083333  0.016667     48.000000
  0.216667  0.083333  0.016667     48.000000
  0.250000  0.083333  0.016667     48.000000
  0.283333  0.083333  0.016667     48.000000
  0.316667  0.083333  0.016667     48.000000
  0.350000  0.083333  0.016667     48.000000
  0.383333  0.083333  0.016667     48.000000
  0.416667  0.083333  0.016667     48.000000
  0.450000  0.083333  0.016667     24.000000
 -0.083333  0.083333  0.016667     24.000000
 -0.050000  0.083333  0.016667     24.000000
  0.116667  0.116667  0.016667     24.000000
  0.150000  0.116667  0.016667     48.000000
  0.183333  0.116667  0.016667     48.000000
  0.216667  0.116667  0.016667     48.000000
  0.250000  0.116667  0.016667     48.000000
  0.283333  0.116667  0.016667     48.000000
  0.316667  0.116667  0.016667     48.000000
  0.350000  0.116667  0.016667     48.000000
  0.383333  0.116667  0.016667     48.000000
  0.416667  0.116667  0.016667     48.000000
 -0.116667  0.116667  0.016667     24.000000
 -0.083333  0.116667  0.016667     48.000000
  0.150000  0.150000  0.016667     24.000000
  0.183333  0.150000  0.016667     48.000000
  0.216667  0.150000  0.016667     48.000000
  0.250000  0.150000  0.016667     48.000000
[...]
 -0.450000  0.450000  0.383333     24.000000
 -0.416667  0.450000  0.383333     24.000000
 -0.483333  0.483333  0.383333     24.000000
 -0.450000  0.483333  0.383333     48.000000
 -0.483333 -0.483333  0.383333     24.000000
 -0.450000 -0.483333  0.383333     24.000000
 -0.416667  0.416667  0.416667      6.000000
 -0.450000  0.450000  0.416667     24.000000
 -0.483333  0.483333  0.416667     24.000000
 -0.450000  0.483333  0.416667     24.000000
 -0.483333 -0.483333  0.416667     24.000000
 -0.450000  0.450000  0.450000      6.000000
 -0.483333  0.483333  0.450000     24.000000
[...]

 position of ions in fractional coordinates (direct lattice)
   0.00000000  0.00000000  0.00000000

 position of ions in cartesian coordinates  (Angst):
   0.00000000  0.00000000  0.00000000

 k-point  1 :   0.0167 0.0167 0.0167  plane waves:      99
 k-point  2 :   0.0500 0.0167 0.0167  plane waves:     101
 k-point  3 :   0.0833 0.0167 0.0167  plane waves:     107
 k-point  4 :   0.1167 0.0167 0.0167  plane waves:     107
 k-point  5 :   0.1500 0.0167 0.0167  plane waves:     107
 k-point  6 :   0.1833 0.0167 0.0167  plane waves:     108
 k-point  7 :   0.2167 0.0167 0.0167  plane waves:     107
 k-point  8 :   0.2500 0.0167 0.0167  plane waves:     107
 k-point  9 :   0.2833 0.0167 0.0167  plane waves:     107
 k-point 10 :   0.3167 0.0167 0.0167  plane waves:     111
 k-point 11 :   0.3500 0.0167 0.0167  plane waves:     111
 k-point 12 :   0.3833 0.0167 0.0167  plane waves:     112
 k-point 13 :   0.4167 0.0167 0.0167  plane waves:     110
 k-point 14 :   0.4500 0.0167 0.0167  plane waves:     112
 k-point 15 :   0.4833 0.0167 0.0167  plane waves:     114
 k-point 16 :  -0.0167 0.0167 0.0167  plane waves:      87
 k-point 17 :   0.0500 0.0500 0.0167  plane waves:     103
 k-point 18 :   0.0833 0.0500 0.0167  plane waves:     107
 k-point 19 :   0.1167 0.0500 0.0167  plane waves:     106
 k-point 20 :   0.1500 0.0500 0.0167  plane waves:     107
 k-point 21 :   0.1833 0.0500 0.0167  plane waves:     107
 k-point 22 :   0.2167 0.0500 0.0167  plane waves:     106
 k-point 23 :   0.2500 0.0500 0.0167  plane waves:     107
 k-point 24 :   0.2833 0.0500 0.0167  plane waves:     107
 k-point 25 :   0.3167 0.0500 0.0167  plane waves:     108
 k-point 26 :   0.3500 0.0500 0.0167  plane waves:     109
 k-point 27 :   0.3833 0.0500 0.0167  plane waves:     109
 k-point 28 :   0.4167 0.0500 0.0167  plane waves:     108
 k-point 29 :   0.4500 0.0500 0.0167  plane waves:     110
 k-point 30 :  -0.0500 0.0500 0.0167  plane waves:     103
 k-point 31 :   0.0833 0.0833 0.0167  plane waves:     105
 k-point 32 :   0.1167 0.0833 0.0167  plane waves:     106
 k-point 33 :   0.1500 0.0833 0.0167  plane waves:     106
 k-point 34 :   0.1833 0.0833 0.0167  plane waves:     105
 k-point 35 :   0.2167 0.0833 0.0167  plane waves:     107
 k-point 36 :   0.2500 0.0833 0.0167  plane waves:     107
 k-point 37 :   0.2833 0.0833 0.0167  plane waves:     107
 k-point 38 :   0.3167 0.0833 0.0167  plane waves:     108
 k-point 39 :   0.3500 0.0833 0.0167  plane waves:     109
 k-point 40 :   0.3833 0.0833 0.0167  plane waves:     109
 k-point 41 :   0.4167 0.0833 0.0167  plane waves:     108
 k-point 42 :   0.4500 0.0833 0.0167  plane waves:     109
 k-point 43 :  -0.0833 0.0833 0.0167  plane waves:     105
 k-point 44 :  -0.0500 0.0833 0.0167  plane waves:     105
 k-point 45 :   0.1167 0.1167 0.0167  plane waves:     106
 k-point 46 :   0.1500 0.1167 0.0167  plane waves:     106
 k-point 47 :   0.1833 0.1167 0.0167  plane waves:     107
 k-point 48 :   0.2167 0.1167 0.0167  plane waves:     106
 k-point 49 :   0.2500 0.1167 0.0167  plane waves:     106
 k-point 50 :   0.2833 0.1167 0.0167  plane waves:     105
 k-point 51 :   0.3167 0.1167 0.0167  plane waves:     108
 k-point 52 :   0.3500 0.1167 0.0167  plane waves:     108
 k-point 53 :   0.3833 0.1167 0.0167  plane waves:     108
 k-point 54 :   0.4167 0.1167 0.0167  plane waves:     109
 k-point 55 :  -0.1167 0.1167 0.0167  plane waves:     107
 k-point 56 :  -0.0833 0.1167 0.0167  plane waves:     105
 k-point 57 :   0.1500 0.1500 0.0167  plane waves:     107
 k-point 58 :   0.1833 0.1500 0.0167  plane waves:     108
 k-point 59 :   0.2167 0.1500 0.0167  plane waves:     106
 k-point 60 :   0.2500 0.1500 0.0167  plane waves:     106
[...]
 k-point 85 :  -0.2167 0.2167 0.0167  plane waves:     107
 k-point 86 :  -0.1833 0.2167 0.0167  plane waves:     107
 k-point 87 :  -0.1500 0.2167 0.0167  plane waves:     106
 k-point 88 :  -0.1167 0.2167 0.0167  plane waves:     106
 k-point 89 :   0.2500 0.2500 0.0167  plane waves:     104
 k-point 90 :   0.2833 0.2500 0.0167  plane waves:     106
 k-point 91 :   0.3167 0.2500 0.0167  plane waves:     107
 k-point 92 :   0.3500 0.2500 0.0167  plane waves:     107
 k-point 93 :  -0.2500 0.2500 0.0167  plane waves:     107
 k-point 94 :  -0.2167 0.2500 0.0167  plane waves:     106
 k-point 95 :  -0.1833 0.2500 0.0167  plane waves:     105
 k-point 96 :  -0.1500 0.2500 0.0167  plane waves:     107
 k-point 97 :   0.2833 0.2833 0.0167  plane waves:     106
 k-point 98 :   0.3167 0.2833 0.0167  plane waves:     107
 k-point 99 :   0.3500 0.2833 0.0167  plane waves:     108
 k-point ** :  -0.2833 0.2833 0.0167  plane waves:     110
 k-point ** :  -0.2500 0.2833 0.0167  plane waves:     107
 k-point ** :  -0.2167 0.2833 0.0167  plane waves:     106
 k-point ** :  -0.1833 0.2833 0.0167  plane waves:     108
 k-point ** :  -0.1500 0.2833 0.0167  plane waves:     107
 k-point ** :   0.3167 0.3167 0.0167  plane waves:     106
 k-point ** :  -0.3167 0.3167 0.0167  plane waves:     110
 k-point ** :  -0.2833 0.3167 0.0167  plane waves:     107
 k-point ** :  -0.2500 0.3167 0.0167  plane waves:     107
 k-point ** :  -0.2167 0.3167 0.0167  plane waves:     106
 k-point ** :  -0.1833 0.3167 0.0167  plane waves:     108
 k-point ** :  -0.3500 0.3500 0.0167  plane waves:     111
 k-point ** :  -0.3167 0.3500 0.0167  plane waves:     107
 k-point ** :  -0.2833 0.3500 0.0167  plane waves:     107
 k-point ** :  -0.2500 0.3500 0.0167  plane waves:     105
 k-point ** :  -0.2167 0.3500 0.0167  plane waves:     107
 k-point ** :  -0.1833 0.3500 0.0167  plane waves:     107
 k-point ** :  -0.3833 0.3833 0.0167  plane waves:     112
 k-point ** :  -0.3500 0.3833 0.0167  plane waves:     108
 k-point ** :  -0.3167 0.3833 0.0167  plane waves:     107
 k-point ** :  -0.2833 0.3833 0.0167  plane waves:     105
 k-point ** :  -0.2500 0.3833 0.0167  plane waves:     107
 k-point ** :  -0.2167 0.3833 0.0167  plane waves:     107
 k-point ** :  -0.4167 0.4167 0.0167  plane waves:     112
 k-point ** :  -0.3833 0.4167 0.0167  plane waves:     109
 k-point ** :  -0.3500 0.4167 0.0167  plane waves:     109
 k-point ** :  -0.3167 0.4167 0.0167  plane waves:     107
 k-point ** :  -0.2833 0.4167 0.0167  plane waves:     106
 k-point ** :  -0.2500 0.4167 0.0167  plane waves:     107
 k-point ** :  -0.2167 0.4167 0.0167  plane waves:     105
 k-point ** :  -0.4500 0.4500 0.0167  plane waves:     110
 k-point ** :  -0.4167 0.4500 0.0167  plane waves:     108
 k-point ** :  -0.3833 0.4500 0.0167  plane waves:     109
 k-point ** :  -0.3500 0.4500 0.0167  plane waves:     109
 k-point ** :  -0.3167 0.4500 0.0167  plane waves:     107
 k-point ** :  -0.2833 0.4500 0.0167  plane waves:     107
 k-point ** :  -0.2500 0.4500 0.0167  plane waves:     107
 k-point ** :  -0.4833 0.4833 0.0167  plane waves:     114
 k-point ** :  -0.4500 0.4833 0.0167  plane waves:     109
 k-point ** :  -0.4167 0.4833 0.0167  plane waves:     109
 k-point ** :  -0.3833 0.4833 0.0167  plane waves:     109
 k-point ** :  -0.3500 0.4833 0.0167  plane waves:     107
 k-point ** :  -0.3167 0.4833 0.0167  plane waves:     106
 k-point ** :  -0.2833 0.4833 0.0167  plane waves:     107
 k-point ** :  -0.2500 0.4833 0.0167  plane waves:     104
 k-point ** :  -0.4833-0.4833 0.0167  plane waves:     109
 k-point ** :  -0.4500-0.4833 0.0167  plane waves:     108
 k-point ** :  -0.4167-0.4833 0.0167  plane waves:     108
 k-point ** :  -0.3833-0.4833 0.0167  plane waves:     107
 k-point ** :  -0.3500-0.4833 0.0167  plane waves:     106
 k-point ** :  -0.3167-0.4833 0.0167  plane waves:     106
 k-point ** :  -0.2833-0.4833 0.0167  plane waves:     106
 k-point ** :  -0.4500-0.4500 0.0167  plane waves:     109
 k-point ** :  -0.4167-0.4500 0.0167  plane waves:     107
 k-point ** :  -0.3833-0.4500 0.0167  plane waves:     105
 k-point ** :  -0.3500-0.4500 0.0167  plane waves:     106
 k-point ** :  -0.3167-0.4500 0.0167  plane waves:     107
 k-point ** :  -0.2833-0.4500 0.0167  plane waves:     106
 k-point ** :  -0.4167-0.4167 0.0167  plane waves:     104
 k-point ** :  -0.3833-0.4167 0.0167  plane waves:     107
[...]
 k-point ** :  -0.4500 0.4500 0.3833  plane waves:     112
 k-point ** :  -0.4167 0.4500 0.3833  plane waves:     110
 k-point ** :  -0.4833 0.4833 0.3833  plane waves:     112
 k-point ** :  -0.4500 0.4833 0.3833  plane waves:     113
 k-point ** :  -0.4833-0.4833 0.3833  plane waves:     114
 k-point ** :  -0.4500-0.4833 0.3833  plane waves:     112
 k-point ** :  -0.4167 0.4167 0.4167  plane waves:     112
 k-point ** :  -0.4500 0.4500 0.4167  plane waves:     113
 k-point ** :  -0.4833 0.4833 0.4167  plane waves:     114
 k-point ** :  -0.4500 0.4833 0.4167  plane waves:     116
 k-point ** :  -0.4833-0.4833 0.4167  plane waves:     116
 k-point ** :  -0.4500 0.4500 0.4500  plane waves:     116
 k-point ** :  -0.4833 0.4833 0.4500  plane waves:     116
 k-point ** :  -0.4833-0.4833 0.4500  plane waves:     116
 k-point ** :  -0.4833 0.4833 0.4833  plane waves:     116

 maximum and minimum number of plane-waves per node :       116       87

 maximum number of plane-waves:       116
 maximum index in each direction:
   IXMAX=    3   IYMAX=    3   IZMAX=    3
   IXMIN=   -3   IYMIN=   -3   IZMIN=   -3

 serial   3D FFT for wavefunctions
 parallel 3D FFT for charge:
    minimum data exchange during FFTs selected (reduces bandwidth)

 Broyden mixing: mesh for mixing (old mesh)
   NGX =  7   NGY =  7   NGZ =  7
  (NGX  = 20   NGY  = 20   NGZ  = 20)
  gives a total of    343 points

 initial charge density was supplied:
 charge density of overlapping atoms calculated
 number of electron       8.0000000 magnetization
 keeping initial charge density in first step

 Maximum index for augmentation-charges         3215 (set IRDMAX)

 First call to EWALD:  gamma=   0.803
 Maximum number of real-space cells 3x 3x 3
 Maximum number of reciprocal cells 3x 3x 3

--------------------------------------- Iteration      1(   1)  ---------------------------------------

 eigenvalue-minimisations  : 12464
 total energy-change (2. order) : 0.3669069E+01  (-0.2996018E+03)
 number of electron       8.0000000 magnetization
 augmentation part        8.0000000 magnetization

 Free energy of the ion-electron system (eV)
  alpha Z        PSCENC =        62.34006536
  Ewald energy   TEWEN  =      -603.21366465
  -Hartree energ DENC   =      -106.80153196
  -exchange      EXHF   =         0.00000000
  -V(xc)+E(xc)   XCENC  =         4.59376900
  PAW double counting   =       479.09899362     -488.38466797
  entropy T*S    EENTRO =        -0.00008022
  eigenvalues    EBANDS =        58.70583348
  atomic energy  EATOM  =       597.33035224
  Solvation  Ediel_sol  =         0.00000000
  free energy    TOTEN  =         3.66906890 eV

  energy without entropy =        3.66914912  energy(sigma->0) =        3.66909564

[...]

 eigenvalue-minimisations  : 12152
 total energy-change (2. order) :-0.1405783E+02  (-0.1357569E+02)
 number of electron       8.0000000 magnetization
 augmentation part        8.0000000 magnetization

[...]

 Broyden mixing:
  rms(total) = 0.88051E+00    rms(broyden)= 0.88014E+00
  rms(prec ) = 0.35943E+01
  weight for this iteration     100.00

[...]

 eigenvalues of (default mixing * dielectric matrix)
  average eigenvalue GAMMA=   0.8340
  0.8340

[...]

 eigenvalue-minimisations  : 14696
 total energy-change (2. order) :-0.7669497E-05  (-0.2542029E-05)
 number of electron       8.0000156 magnetization
 augmentation part        4.1155217 magnetization

 Broyden mixing:
  rms(total) = 0.91767E-03    rms(broyden)= 0.91757E-03
  rms(prec ) = 0.29411E-02
  weight for this iteration     100.00

 eigenvalues of (default mixing * dielectric matrix)
  average eigenvalue GAMMA=   1.5257
  2.5255  2.5255  1.0258  0.7435  0.8082

[...]

--------------------------------------- Iteration      1(  11)  ---------------------------------------

 eigenvalue-minimisations  :  6792
 total energy-change (2. order) : 0.5729414E-06  (-0.5111447E-07)
 number of electron       8.0000156 magnetization
 augmentation part        4.1155217 magnetization

 Free energy of the ion-electron system (eV)
  alpha Z        PSCENC =        62.34006536
  Ewald energy   TEWEN  =      -603.21366465
  -Hartree energ DENC   =       -90.15040207
  -exchange      EXHF   =         0.00000000
  -V(xc)+E(xc)   XCENC  =         3.70361720
  PAW double counting   =       526.47365492     -536.60298105
  entropy T*S    EENTRO =        -0.00114464
  eigenvalues    EBANDS =        31.21371292
  atomic energy  EATOM  =       597.33035224
  Solvation  Ediel_sol  =         0.00000000
  free energy    TOTEN  =        -8.90678977 eV

  energy without entropy =       -8.90564513  energy(sigma->0) =       -8.90640823

 average (electrostatic) potential at core
  the test charge radii are     1.0103
  (the norm of the test charge is              1.0000)
       1 -43.6266

 E-fermi :   6.2934     XC(G=0): -13.7668     alpha+bet :-14.3513

 k-point     1 :       0.0167    0.0167    0.0167
  band No.  band energies     occupation
      1      -2.3228      2.00000
      2       4.5589      2.00000
      3       4.5589      2.00000
      4       4.6211      2.00000
      5       6.2280      1.52244
      6       6.2280      1.52244
      7      31.4982      0.00000
      8      31.4982      0.00000

[...]

 k-point   744 :      -0.4833    0.4833    0.4833
  band No.  band energies     occupation
      1       1.7966      2.00000
      2       1.7968      2.00000
      3       7.2923     -0.00000
      4       7.2924     -0.00000
      5       7.3086     -0.00000
      6      16.5182      0.00000
      7      16.7361      0.00000
      8      16.7361      0.00000

 soft charge-density along one line, spin component           1
         0         1         2         3         4         5         6         7         8         9
 total charge-density along one line

------------------------ aborting loop because EDIFF is reached ----------------------------------------

  FORCE on cell =-STRESS in cart. coord.  units (eV):
  Direction    XX          YY          ZZ          XY          YZ          ZX
  Alpha Z    62.34007    62.34007    62.34007
  Ewald    -201.07122  -201.07122  -201.07122     0.00000     0.00000    -0.00000
  Hartree    30.05214    30.05214    30.05214    -0.00000    -0.00000    -0.00000
  E(xc)     -38.81515   -38.81515   -38.81515     0.00001     0.00001     0.00001
  Local      60.25760    60.25760    60.25760     0.00004     0.00004     0.00004
  n-local   -28.75069   -26.26880   -25.93880     0.28536    -1.53324    -1.47751
  augment    37.65502    37.65502    37.65502    -0.00000    -0.00000    -0.00000
  Kinetic    74.43758    76.04874    73.55445     1.20627     2.52129     0.70710
  Fock        0.00000     0.00000     0.00000     0.00000     0.00000     0.00000
  Total      -1.88739    -1.88739    -1.88739     0.00000     0.00000     0.00000
  in kB    -281.49242  -281.49242  -281.49242     0.00000     0.00000     0.00000

 VOLUME and BASIS-vectors are now :
  energy-cutoff  :      267.97
  volume of cell :       10.74
      direct lattice vectors                 reciprocal lattice vectors
    -1.390000000  1.390000000  1.390000000     0.000000000  0.359712230  0.359712230
     1.390000000 -1.390000000  1.390000000     0.359712230  0.000000000  0.359712230
     1.390000000  1.390000000 -1.390000000     0.359712230  0.359712230  0.000000000

  length of vectors
     2.407550623  2.407550623  2.407550623     0.508709915  0.508709915  0.508709915

 FORCES acting on ions
    electron-ion (+dipol)            ewald-force                    non-local-force                 convergence-correction
   0.749E-14 0.787E-14 0.919E-14   0.298E-18 0.643E-15 0.141E-14   0.258E-25 0.129E-24 0.284E-24   0.153E-13 0.161E-13 0.141E-13
   0.749E-14 0.787E-14 0.919E-14   0.298E-18 0.643E-15 0.141E-14   0.258E-25 0.129E-24 0.284E-24   0.153E-13 0.161E-13 0.141E-13

 POSITION                                       TOTAL-FORCE (eV/Angst)
      0.00000      0.00000      0.00000         0.000000      0.000000     -0.000000
    total drift:                                0.000000      0.000000      0.000000

  FREE ENERGIE OF THE ION-ELECTRON SYSTEM (eV)
  free  energy   TOTEN  =        -8.90678977 eV

  energy  without entropy=       -8.90564513  energy(sigma->0) =       -8.90640823

volume of typ            1:    86.1 %

total charge

# of ion       s       p       d       tot
    1        0.426   0.472   6.223   7.121

orbital moment (x)

[...]

orbital moment (y)

[...]

orbital moment (z)

# of ion     s             p             d             tot
    1     0.000000E+00 -0.373112E-10 -0.402513E-11 -0.413364E-10