 vasp.5.4.4.18Apr17-6-g9f103f2a35 (build May 20 2018 16:52:39) complex

 executed on             LinuxIFC date 2022.11.04  18:17:53

 INCAR:
 POTCAR:   PAW_PBE Si 05Jan2001
 POTCAR:   PAW_PBE Si 05Jan2001
   VRHFIN =Si: s2p2

   TITEL  = PAW_PBE Si 05Jan2001
   POMASS =   28.085; ZVAL   =    4.000    mass and valenz
   ENMAX  =  245.345; ENMIN  =  184.009 eV
   QCUT   =   -4.246; QGAM   =    8.493    optimization parameters

   Description
     l     E      TYP  RCUT    TYP  RCUT
     0   .000     23  1.900
     0   .000     23  1.900
     1   .000     23  1.900
     1   .000     23  1.900
     2   .000      7  1.900

 PAW_PBE Si 05Jan2001                   :

 POSCAR: primitive Si
  positions in direct lattice
 exchange correlation table for  LEXCH =        8
   RHO(1)=    0.500       N(1)  =     2000
   RHO(2)=  100.500       N(2)  =     4000

 ion  position               nearest neighbor table
   1  0.000  0.000  0.000-   2 2.35   2 2.35   2 2.35   2 2.35
   2  0.250  0.250  0.250-   1 2.35   1 2.35   1 2.35   1 2.35

  LATTYP: Found a face centered cubic cell.
 ALAT       =     5.4300000000

  Lattice vectors:

 A1 = (   0.0000000000,   2.7150000000,   2.7150000000)
 A2 = (   2.7150000000,   0.0000000000,   2.7150000000)
 A3 = (   2.7150000000,   2.7150000000,   0.0000000000)

Analysis of symmetry for initial positions (statically):
 Subroutine PRICEL returns:
 Original cell was already a primitive cell.

 Routine SETGRP: Setting up the symmetry group for a
 face centered cubic supercell.

 Subroutine GETGRP returns: Found 48 space group operations
 (whereof 24 operations were pure point group operations)
 out of a pool of 48 trial point group operations.

The static configuration has the point symmetry T_d .
 The point group associated with its full space group is O_h .

Analysis of symmetry for dynamics (positions and initial velocities):
 Subroutine PRICEL returns:
 Original cell was already a primitive cell.

 Routine SETGRP: Setting up the symmetry group for a
 face centered cubic supercell.

 Subroutine GETGRP returns: Found 48 space group operations
 (whereof 24 operations were pure point group operations)
 out of a pool of 48 trial point group operations.

The dynamic configuration has the point symmetry T_d .
 The point group associated with its full space group is O_h .

 Subroutine INISYM returns: Found 48 space group operations
 (whereof 24 operations are pure point group operations),
 and found     1 'primitive' translations

 KPOINTS: 10*10*10

Automatic generation of k-mesh.
Space group operators:
 irot       det(A)        alpha          n_x          n_y          n_z        tau_x        tau_y        tau_z
    1     1.000000     0.000001     1.000000     0.000000     0.000000     0.000000     0.000000     0.000000
    2     1.000000   120.000000    -0.577350    -0.577350    -0.577350     0.000000     0.000000     0.000000
    3     1.000000   120.000000     0.577350     0.577350     0.577350     0.000000     0.000000     0.000000
    4    -1.000000    90.000000     0.000000     0.000000    -1.000000     0.000000     0.000000     0.000000
    5    -1.000000   180.000000     0.000000     0.707107     0.707107     0.000000     0.000000     0.000000
    6    -1.000000    90.000000     0.000000     1.000000     0.000000     0.000000     0.000000     0.000000
    7     1.000000   180.000000     0.000000     0.000000     1.000000     0.000000     0.000000     0.000000
    8     1.000000   120.000000    -0.577350     0.577350     0.577350     0.000000     0.000000     0.000000
    9     1.000000   120.000000    -0.577350     0.577350    -0.577350     0.000000     0.000000     0.000000
   10    -1.000000    90.000000     0.000000     0.000000     1.000000     0.000000     0.000000     0.000000
   11    -1.000000    90.000000    -1.000000     0.000000     0.000000     0.000000     0.000000     0.000000
   12    -1.000000   180.000000     0.707107     0.000000     0.707107     0.000000     0.000000     0.000000
   13     1.000000   120.000000     0.577350    -0.577350     0.577350     0.000000     0.000000     0.000000
   14     1.000000   120.000000    -0.577350    -0.577350     0.577350     0.000000     0.000000     0.000000
   15     1.000000   180.000000     1.000000     0.000000     0.000000     0.000000     0.000000     0.000000
   16    -1.000000    90.000000     0.000000    -1.000000     0.000000     0.000000     0.000000     0.000000
   17    -1.000000   180.000000     0.707107     0.707107     0.000000     0.000000     0.000000     0.000000
   18    -1.000000    90.000000     1.000000     0.000000     0.000000     0.000000     0.000000     0.000000
   19     1.000000   120.000000     0.577350    -0.577350    -0.577350     0.000000     0.000000     0.000000
   20     1.000000   180.000000     0.000000     1.000000     0.000000     0.000000     0.000000     0.000000
   21     1.000000   120.000000     0.577350     0.577350    -0.577350     0.000000     0.000000     0.000000
   22    -1.000000   180.000000     0.000000    -0.707107     0.707107     0.000000     0.000000     0.000000
   23    -1.000000   180.000000     0.707107    -0.707107     0.000000     0.000000     0.000000     0.000000
   24    -1.000000   180.000000     0.707107     0.000000    -0.707107     0.000000     0.000000     0.000000
   25    -1.000000     0.000001     1.000000     0.000000     0.000000     0.250000     0.250000     0.250000
   26    -1.000000   120.000000    -0.577350    -0.577350    -0.577350     0.250000     0.250000     0.250000
   27    -1.000000   120.000000     0.577350     0.577350     0.577350     0.250000     0.250000     0.250000
   28     1.000000    90.000000     0.000000     0.000000    -1.000000     0.250000     0.250000     0.250000
   29     1.000000   180.000000     0.000000     0.707107     0.707107     0.250000     0.250000     0.250000
   30     1.000000    90.000000     0.000000     1.000000     0.000000     0.250000     0.250000     0.250000
   31    -1.000000   180.000000     0.000000     0.000000     1.000000     0.250000     0.250000     0.250000
   32    -1.000000   120.000000    -0.577350     0.577350     0.577350     0.250000     0.250000     0.250000
   33    -1.000000   120.000000    -0.577350     0.577350    -0.577350     0.250000     0.250000     0.250000
   34     1.000000    90.000000     0.000000     0.000000     1.000000     0.250000     0.250000     0.250000
   35     1.000000    90.000000    -1.000000     0.000000     0.000000     0.250000     0.250000     0.250000
   36     1.000000   180.000000     0.707107     0.000000     0.707107     0.250000     0.250000     0.250000
   37    -1.000000   120.000000     0.577350    -0.577350     0.577350     0.250000     0.250000     0.250000
   38    -1.000000   120.000000    -0.577350    -0.577350     0.577350     0.250000     0.250000     0.250000
   39    -1.000000   180.000000     1.000000     0.000000     0.000000     0.250000     0.250000     0.250000
   40     1.000000    90.000000     0.000000    -1.000000     0.000000     0.250000     0.250000     0.250000
   41     1.000000   180.000000     0.707107     0.707107     0.000000     0.250000     0.250000     0.250000
   42     1.000000    90.000000     1.000000     0.000000     0.000000     0.250000     0.250000     0.250000
   43    -1.000000   120.000000     0.577350    -0.577350    -0.577350     0.250000     0.250000     0.250000
   44    -1.000000   180.000000     0.000000     1.000000     0.000000     0.250000     0.250000     0.250000
   45    -1.000000   120.000000     0.577350     0.577350    -0.577350     0.250000     0.250000     0.250000
   46     1.000000   180.000000     0.000000    -0.707107     0.707107     0.250000     0.250000     0.250000
   47     1.000000   180.000000     0.707107    -0.707107     0.000000     0.250000     0.250000     0.250000
   48     1.000000   180.000000     0.707107     0.000000    -0.707107     0.250000     0.250000     0.250000

 Subroutine IBZKPT returns following result:

 Found     47 irreducible k-points:

 Following reciprocal coordinates:
            Coordinates               Weight
  0.000000  0.000000  0.000000      1.000000
  0.100000  0.000000  0.000000      8.000000
  0.200000  0.000000  0.000000      8.000000
  0.300000  0.000000  0.000000      8.000000
  0.400000  0.000000  0.000000      8.000000
  0.500000  0.000000  0.000000      4.000000
  0.100000  0.100000  0.000000      6.000000
  0.200000  0.100000  0.000000     24.000000
  0.300000  0.100000  0.000000     24.000000
  0.400000  0.100000  0.000000     24.000000
  0.500000  0.100000  0.000000     24.000000
 -0.400000  0.100000  0.000000     24.000000
 -0.300000  0.100000  0.000000     24.000000
 -0.200000  0.100000  0.000000     24.000000
 -0.100000  0.100000  0.000000     12.000000
  0.200000  0.200000  0.000000      6.000000
  0.300000  0.200000  0.000000     24.000000
  0.400000  0.200000  0.000000     24.000000
  0.500000  0.200000  0.000000     24.000000
 -0.400000  0.200000  0.000000     24.000000
 -0.300000  0.200000  0.000000     24.000000
 -0.200000  0.200000  0.000000     12.000000
  0.300000  0.300000  0.000000      6.000000
  0.400000  0.300000  0.000000     24.000000
  0.500000  0.300000  0.000000     24.000000
 -0.400000  0.300000  0.000000     24.000000
 -0.300000  0.300000  0.000000     12.000000
  0.400000  0.400000  0.000000      6.000000
  0.500000  0.400000  0.000000     24.000000
 -0.400000  0.400000  0.000000     12.000000
  0.500000  0.500000  0.000000      3.000000
  0.300000  0.200000  0.100000     24.000000
  0.400000  0.200000  0.100000     48.000000
  0.500000  0.200000  0.100000     48.000000
 -0.400000  0.200000  0.100000     24.000000
  0.400000  0.300000  0.100000     24.000000
  0.500000  0.300000  0.100000     48.000000
 -0.400000  0.300000  0.100000     48.000000
 -0.300000  0.300000  0.100000     48.000000
 -0.200000  0.300000  0.100000     24.000000
  0.500000  0.400000  0.100000     24.000000
 -0.400000  0.400000  0.100000     48.000000
 -0.300000  0.400000  0.100000     24.000000
 -0.400000  0.500000  0.100000     12.000000
 -0.400000  0.400000  0.200000     24.000000
 -0.300000  0.400000  0.200000     24.000000
 -0.300000  0.500000  0.200000     12.000000

 Following cartesian coordinates:
            Coordinates               Weight
  0.000000  0.000000  0.000000      1.000000
 -0.100000  0.100000  0.100000      8.000000
 -0.200000  0.200000  0.200000      8.000000
 -0.300000  0.300000  0.300000      8.000000
 -0.400000  0.400000  0.400000      8.000000
 -0.500000  0.500000  0.500000      4.000000
  0.000000  0.000000  0.200000      6.000000
 -0.100000  0.100000  0.300000     24.000000
 -0.200000  0.200000  0.400000     24.000000
 -0.300000  0.300000  0.500000     24.000000
 -0.400000  0.400000  0.600000     24.000000
  0.500000 -0.500000 -0.300000     24.000000
  0.400000 -0.400000 -0.200000     24.000000
  0.300000 -0.300000 -0.100000     24.000000
  0.200000 -0.200000  0.000000     12.000000
  0.000000  0.000000  0.400000      6.000000
 -0.100000  0.100000  0.500000     24.000000
 -0.200000  0.200000  0.600000     24.000000
 -0.300000  0.300000  0.700000     24.000000
[...]
 initial mixing is a Kerker type mixing with AMIX =  0.4000 and BMIX =      1.0000
 Hartree-type preconditioning will be used
 using additional bands            4
 reciprocal scheme for non local part
 use partial core corrections
 calculate Harris-corrections to forces
   (improved forces if not selfconsistent)
 use gradient corrections
 use of overlap-Matrix (Vanderbilt PP)
 Fermi weights with tetrahedron method with Bloechl corrections

  energy-cutoff  :      300.00
  volume of cell :       40.03
      direct lattice vectors                 reciprocal lattice vectors
     0.000000000  2.715000000  2.715000000    -0.184162063  0.184162063  0.184162063
     2.715000000  0.000000000  2.715000000     0.184162063 -0.184162063  0.184162063
     2.715000000  2.715000000  0.000000000     0.184162063  0.184162063 -0.184162063

  length of vectors
     3.839589822  3.839589822  3.839589822     0.318978049  0.318978049  0.318978049

 k-points in units of 2pi/SCALE and weight: 10*10*10
   0.00000000  0.00000000  0.00000000       0.001
  -0.10000000  0.10000000  0.10000000       0.008
  -0.20000000  0.20000000  0.20000000       0.008
  -0.30000000  0.30000000  0.30000000       0.008
  -0.40000000  0.40000000  0.40000000       0.008
  -0.50000000  0.50000000  0.50000000       0.004
   0.00000000  0.00000000  0.20000000       0.006
  -0.10000000  0.10000000  0.30000000       0.024
  -0.20000000  0.20000000  0.40000000       0.024
  -0.30000000  0.30000000  0.50000000       0.024
  -0.40000000  0.40000000  0.60000000       0.024
   0.50000000 -0.50000000 -0.30000000       0.024
   0.40000000 -0.40000000 -0.20000000       0.024
   0.30000000 -0.30000000 -0.10000000       0.024
   0.20000000 -0.20000000  0.00000000       0.012
   0.00000000  0.00000000  0.40000000       0.006
  -0.10000000  0.10000000  0.50000000       0.024
  -0.20000000  0.20000000  0.60000000       0.024
  -0.30000000  0.30000000  0.70000000       0.024
   0.60000000 -0.60000000 -0.20000000       0.024
   0.50000000 -0.50000000 -0.10000000       0.024
   0.40000000 -0.40000000  0.00000000       0.012
   0.00000000  0.00000000  0.60000000       0.006
  -0.10000000  0.10000000  0.70000000       0.024
  -0.20000000  0.20000000  0.80000000       0.024
   0.70000000 -0.70000000 -0.10000000       0.024
   0.60000000 -0.60000000  0.00000000       0.012
   0.00000000  0.00000000  0.80000000       0.006
  -0.10000000  0.10000000  0.90000000       0.024
   0.80000000 -0.80000000  0.00000000       0.012
   0.00000000  0.00000000  1.00000000       0.003
   0.00000000  0.20000000  0.40000000       0.024
  -0.10000000  0.30000000  0.50000000       0.048
  -0.20000000  0.40000000  0.60000000       0.048
   0.70000000 -0.50000000 -0.30000000       0.024
  -0.00000000  0.20000000  0.60000000       0.024
  -0.10000000  0.30000000  0.70000000       0.048
   0.80000000 -0.60000000 -0.20000000       0.048
   0.70000000 -0.50000000 -0.10000000       0.048
   0.60000000 -0.40000000  0.00000000       0.024
   0.00000000  0.20000000  0.80000000       0.024
   0.90000000 -0.70000000 -0.10000000       0.048
   0.80000000 -0.60000000  0.00000000       0.024
   1.00000000 -0.80000000 -0.00000000       0.012
   1.00000000 -0.60000000 -0.20000000       0.024
   0.90000000 -0.50000000 -0.10000000       0.024
   1.00000000 -0.60000000  0.00000000       0.012

 k-points in reciprocal lattice and weights: 10*10*10
   0.00000000  0.00000000  0.00000000       0.001
   0.10000000  0.00000000  0.00000000       0.008
   0.20000000  0.00000000  0.00000000       0.008
   0.30000000  0.00000000  0.00000000       0.008
   0.40000000  0.00000000  0.00000000       0.008
   0.50000000  0.00000000  0.00000000       0.004
   0.10000000  0.10000000  0.00000000       0.006
   0.20000000  0.10000000  0.00000000       0.024
   0.30000000  0.10000000  0.00000000       0.024
   0.40000000  0.10000000  0.00000000       0.024
   0.50000000  0.10000000  0.00000000       0.024
  -0.40000000  0.10000000  0.00000000       0.024
  -0.30000000  0.10000000  0.00000000       0.024
  -0.20000000  0.10000000  0.00000000       0.024
  -0.10000000  0.10000000  0.00000000       0.012
   0.20000000  0.20000000  0.00000000       0.006
   0.30000000  0.20000000  0.00000000       0.024
   0.40000000  0.20000000  0.00000000       0.024
   0.50000000  0.20000000  0.00000000       0.024
  -0.40000000  0.20000000  0.00000000       0.024
  -0.30000000  0.20000000  0.00000000       0.024
  -0.20000000  0.20000000  0.00000000       0.012
   0.30000000  0.30000000  0.00000000       0.006
   0.40000000  0.30000000  0.00000000       0.024
   0.50000000  0.30000000  0.00000000       0.024
  -0.40000000  0.30000000  0.00000000       0.024
  -0.30000000  0.30000000  0.00000000       0.012
   0.40000000  0.40000000  0.00000000       0.006
   0.50000000  0.40000000  0.00000000       0.024
  -0.40000000  0.40000000  0.00000000       0.012
   0.50000000  0.50000000  0.00000000       0.003
   0.30000000  0.20000000  0.10000000       0.024
   0.40000000  0.20000000  0.10000000       0.048
   0.50000000  0.20000000  0.10000000       0.048
  -0.40000000  0.20000000  0.10000000       0.024
   0.40000000  0.30000000  0.10000000       0.024
   0.50000000  0.30000000  0.10000000       0.048
  -0.40000000  0.30000000  0.10000000       0.048
  -0.30000000  0.30000000  0.10000000       0.048
  -0.20000000  0.30000000  0.10000000       0.024
   0.50000000  0.40000000  0.10000000       0.024
  -0.40000000  0.40000000  0.10000000       0.048
  -0.30000000  0.40000000  0.10000000       0.024
  -0.40000000  0.50000000  0.10000000       0.012
  -0.40000000  0.40000000  0.20000000       0.024
  -0.30000000  0.40000000  0.20000000       0.024
  -0.30000000  0.50000000  0.20000000       0.012

 position of ions in fractional coordinates (direct lattice)
   0.00000000  0.00000000  0.00000000
   0.25000000  0.25000000  0.25000000

 position of ions in cartesian coordinates  (Angst):
   0.00000000  0.00000000  0.00000000
   1.35750000  1.35750000  1.35750000

 k-point  1 :   0.0000 0.0000 0.0000  plane waves:     459
 k-point  2 :   0.1000 0.0000 0.0000  plane waves:     495
 k-point  3 :   0.2000 0.0000 0.0000  plane waves:     483
 k-point  4 :   0.3000 0.0000 0.0000  plane waves:     483
 k-point  5 :   0.4000 0.0000 0.0000  plane waves:     477
 k-point  6 :   0.5000 0.0000 0.0000  plane waves:     476
 k-point  7 :   0.1000 0.1000 0.0000  plane waves:     495
 k-point  8 :   0.2000 0.1000 0.0000  plane waves:     478
 k-point  9 :   0.3000 0.1000 0.0000  plane waves:     482
 k-point 10 :   0.4000 0.1000 0.0000  plane waves:     471
 k-point 11 :   0.5000 0.1000 0.0000  plane waves:     469
 k-point 12 :  -0.4000 0.1000 0.0000  plane waves:     470
 k-point 13 :  -0.3000 0.1000 0.0000  plane waves:     479
 k-point 14 :  -0.2000 0.1000 0.0000  plane waves:     479
 k-point 15 :  -0.1000 0.1000 0.0000  plane waves:     485
 k-point 16 :   0.2000 0.2000 0.0000  plane waves:     480
 k-point 17 :   0.3000 0.2000 0.0000  plane waves:     476
 k-point 18 :   0.4000 0.2000 0.0000  plane waves:     465
 k-point 19 :   0.5000 0.2000 0.0000  plane waves:     470
 k-point 20 :  -0.4000 0.2000 0.0000  plane waves:     471
 k-point 21 :  -0.3000 0.2000 0.0000  plane waves:     471
 k-point 22 :  -0.2000 0.2000 0.0000  plane waves:     475
 k-point 23 :   0.3000 0.3000 0.0000  plane waves:     476
 k-point 24 :   0.4000 0.3000 0.0000  plane waves:     464
 k-point 25 :   0.5000 0.3000 0.0000  plane waves:     468
 k-point 26 :  -0.4000 0.3000 0.0000  plane waves:     468
 k-point 27 :  -0.3000 0.3000 0.0000  plane waves:     462
 k-point 28 :   0.4000 0.4000 0.0000  plane waves:     460
 k-point 29 :   0.5000 0.4000 0.0000  plane waves:     464
 k-point 30 :  -0.4000 0.4000 0.0000  plane waves:     474
 k-point 31 :   0.5000 0.5000 0.0000  plane waves:     468
 k-point 32 :   0.3000 0.2000 0.1000  plane waves:     480
 k-point 33 :   0.4000 0.2000 0.1000  plane waves:     474
 k-point 34 :   0.5000 0.2000 0.1000  plane waves:     475
 k-point 35 :  -0.4000 0.2000 0.1000  plane waves:     466
 k-point 36 :   0.4000 0.3000 0.1000  plane waves:     471
 k-point 37 :   0.5000 0.3000 0.1000  plane waves:     471
 k-point 38 :  -0.4000 0.3000 0.1000  plane waves:     472
 k-point 39 :  -0.3000 0.3000 0.1000  plane waves:     471
 k-point 40 :  -0.2000 0.3000 0.1000  plane waves:     472
 k-point 41 :   0.5000 0.4000 0.1000  plane waves:     467
 k-point 42 :  -0.4000 0.4000 0.1000  plane waves:     472
 k-point 43 :  -0.3000 0.4000 0.1000  plane waves:     475
 k-point 44 :  -0.4000 0.5000 0.1000  plane waves:     470
 k-point 45 :  -0.4000 0.4000 0.2000  plane waves:     469
 k-point 46 :  -0.3000 0.4000 0.2000  plane waves:     474
 k-point 47 :  -0.3000 0.5000 0.2000  plane waves:     476

 maximum and minimum number of plane-waves per node :       495      459

 maximum number of plane-waves:       495
 maximum index in each direction:
   IXMAX=    5   IYMAX=    5   IZMAX=    5
   IXMIN=   -5   IYMIN=   -5   IZMIN=   -5

 serial   3D FFT for wavefunctions
 parallel 3D FFT for charge:
    minimum data exchange during FFTs selected (reduces bandwidth)

 Broyden mixing: mesh for mixing (old mesh)
   NGX = 11   NGY = 11   NGZ = 11
  (NGX  = 32   NGY  = 32   NGZ  = 32)
  gives a total of   1331 points

 initial charge density was supplied:
 charge density of overlapping atoms calculated
 number of electron       8.0000000 magnetization
 keeping initial charge density in first step

 Maximum index for augmentation-charges         3319 (set IRDMAX)

 First call to EWALD:  gamma=   0.518
 Maximum number of real-space cells 3x 3x 3
 Maximum number of reciprocal cells 3x 3x 3

--------------------------------------- Iteration      1(   1)  ---------------------------------------

 BZINTS: Fermi energy:  9.109091;  8.000000 electrons
         Band energy:  14.817384;  BLOECHL correction: -0.236588

 eigenvalue-minimisations  :   760
 total energy-change (2. order) : 0.1331474E+01  (-0.2467186E+03)
 number of electron       8.0000000 magnetization
 augmentation part        8.0000000 magnetization

 Free energy of the ion-electron system (eV)
  alpha Z        PSCENC =         3.36414203
  Ewald energy   TEWEN  =      -228.56352493
  -Hartree energ DENC   =       -11.00108243
  -exchange      EXHF   =         0.00000000
  -V(xc)+E(xc)   XCENC  =       -18.60181216
  PAW double counting   =        65.95520812      -30.76852678
  entropy T*S    EENTRO =         0.00000000
  eigenvalues    EBANDS =        14.81738386
  atomic energy  EATOM  =       206.12968587
  Solvation  Ediel_sol  =         0.00000000
  free energy    TOTEN  =         1.33147357 eV

  energy without entropy =        1.33147357  energy(sigma->0) =        1.33147357

[...]

 eigenvalue-minimisations  :  1176
 total energy-change (2. order) :-0.1220775E+02  (-0.1200153E+02)
 number of electron       8.0000000 magnetization
 augmentation part        8.0000000 magnetization

[...]

 Broyden mixing:
  rms(total) = 0.30069E+00    rms(broyden)= 0.30068E+00
  rms(prec ) = 0.87246E+00
  weight for this iteration     100.00

[...]

 eigenvalues of (default mixing * dielectric matrix)
  average eigenvalue GAMMA=   2.4320
  2.4320

[...]

 eigenvalue-minimisations  :   904
 total energy-change (2. order) :-0.2084416E-04  (-0.2977801E-05)
 number of electron       7.9999994 magnetization
 augmentation part       -0.4585464 magnetization

[...]

 Broyden mixing:
  rms(total) = 0.53360E-04    rms(broyden)= 0.53356E-04
  rms(prec ) = 0.10518E-03
  weight for this iteration     100.00

 eigenvalues of (default mixing * dielectric matrix)
  average eigenvalue GAMMA=   2.1322
  3.2006  2.8202  2.5923  2.1700  0.9791  1.0309

[...]

--------------------------------------- Iteration      1(  12)  ---------------------------------------

 BZINTS: Fermi energy:  5.872818;  8.000000 electrons
         Band energy:   6.147970;  BLOECHL correction:  0.000000

 eigenvalue-minimisations  :   656
 total energy-change (2. order) : 0.4051293E-07  (-0.4649628E-08)
 number of electron       7.9999994 magnetization
 augmentation part       -0.4585599 magnetization

 Free energy of the ion-electron system (eV)
  alpha Z        PSCENC =         3.36414203
  Ewald energy   TEWEN  =      -228.56352493
  -Hartree energ DENC   =       -14.91648181
  -exchange      EXHF   =         0.00000000
  -V(xc)+E(xc)   XCENC  =       -17.95967136
  PAW double counting   =        74.49713209      -39.53686769
  entropy T*S    EENTRO =         0.00000000
  eigenvalues    EBANDS =         6.14796966
  atomic energy  EATOM  =       206.12968587
  Solvation  Ediel_sol  =         0.00000000
  free energy    TOTEN  =       -10.83761615 eV

  energy without entropy =      -10.83761615  energy(sigma->0) =      -10.83761615

 average (electrostatic) potential at core
  the test charge radii are     0.9892
  (the norm of the test charge is              1.0000)
       1 -83.2451       2 -83.2451

 E-fermi :   5.8728     XC(G=0):  -9.4108     alpha+bet :-11.9845

 k-point     1 :       0.0000    0.0000    0.0000
  band No.  band energies     occupation
      1      -6.1302      2.00000
      2       5.8335      2.00000
      3       5.8335      2.00000
      4       5.8335      2.00000
      5       8.4015      0.00000
      6       8.4015      0.00000
      7       8.4015      0.00000
      8       9.2084      0.00000

[...]

 k-point    47 :      -0.3000    0.5000    0.2000
  band No.  band energies     occupation
      1      -1.8373      2.00000
      2      -1.8373      2.00000
      3       2.0573      2.00000
      4       2.0573      2.00000
      5       9.2685      0.00000
      6       9.2686      0.00000
      7      11.7686      0.00000
      8      11.7687      0.00000

 soft charge-density along one line, spin component           1
         0         1         2         3         4         5         6         7         8         9
 total charge-density along one line

------------------------ aborting loop because EDIFF is reached ----------------------------------------

  FORCE on cell =-STRESS in cart. coord.  units (eV):
  Direction    XX          YY          ZZ          XY          YZ          ZX
  Alpha Z     3.36414     3.36414     3.36414
  Ewald     -76.18788   -76.18788   -76.18788     0.00000    -0.00000     0.00000
  Hartree     4.97212     4.97212     4.97212    -0.00000    -0.00000    -0.00000
  E(xc)     -25.37727   -25.37727   -25.37727     0.00001     0.00001     0.00001
  Local     -29.26269   -29.26269   -29.26269     0.00004     0.00004     0.00004
  n-local    78.90693    80.24846    74.50857     2.23626    -1.28646     0.56919
  augment   -11.64558   -11.64558   -11.64558    -0.00004    -0.00004    -0.00004
  Kinetic    58.85716    56.15929    55.13131     3.55358    -0.66539     1.02750
  Fock        0.00000     0.00000     0.00000     0.00000     0.00000     0.00000
  Total       0.46675     0.46675     0.46675    -0.00000     0.00000    -0.00000
  in kB      18.68327    18.68327    18.68327    -0.00000     0.00000    -0.00000

 VOLUME and BASIS-vectors are now :
  energy-cutoff  :      300.00
  volume of cell :       40.03
      direct lattice vectors                 reciprocal lattice vectors
     0.000000000  2.715000000  2.715000000    -0.184162063  0.184162063  0.184162063
     2.715000000  0.000000000  2.715000000     0.184162063 -0.184162063  0.184162063
     2.715000000  2.715000000  0.000000000     0.184162063  0.184162063 -0.184162063

  length of vectors
     3.839589822  3.839589822  3.839589822     0.318978049  0.318978049  0.318978049

 FORCES acting on ions
    electron-ion (+dipol)            ewald-force                    non-local-force                 convergence-correction
   0.684E-05 0.684E-05 0.684E-05   0.132E-14 -.451E-14 -.305E-14   -.278E-16 0.555E-16 0.243E-16   -.261E-08 -.261E-08 -.261E-08
   -.684E-05 -.684E-05 -.684E-05   -.113E-14 0.493E-14 0.317E-14   -.139E-16 -.625E-16 -.312E-16   0.261E-08 0.261E-08 0.261E-08
   -.170E-14 0.686E-15 -.265E-14   0.187E-15 0.422E-15 0.120E-15   -.416E-16 -.694E-17 -.694E-17   0.130E-14 -.953E-16 0.105E-14

 POSITION                                       TOTAL-FORCE (eV/Angst)
      0.00000      0.00000      0.00000         0.000000      0.000000      0.000000
      1.35750      1.35750      1.35750        -0.000000     -0.000000     -0.000000
    total drift:                               -0.000000      0.000000     -0.000000

  FREE ENERGIE OF THE ION-ELECTRON SYSTEM (eV)
  free  energy   TOTEN  =       -10.83761615 eV

  energy  without entropy=      -10.83761615  energy(sigma->0) =      -10.83761615

 writing wavefunctions
 BZINTS: Fermi energy:  5.872818;  8.000000 electrons
         Band energy:   6.147970;  BLOECHL correction:  0.000000