 vasp.5.3.5 31Mar14 (build Dec 14 2018 19:18:10) complex

 INCAR:
 POTCAR:    PAW Ag
 POTCAR:    PAW Ag
   VRHFIN =Ag : s1 d10

   TITEL  = PAW Ag
   POMASS =  107.868; ZVAL   =   11.000    mass and valenz
   ENMAX  =  249.752; ENMIN  =  187.314 eV
   QCUT   =   -4.284; QGAM   =    8.569    optimization parameters

   Description
     l     E      TYP  RCUT    TYP  RCUT
     2   .000     23  2.400
     2   .000     23  2.400
     0   .000     23  2.400
     0   .000     23  2.400
     1  -.200     23  2.400
     1  1.500     23  2.400
     3   .000      7   .000

  PAW Ag                                :

 POSCAR: fcc Ag
  positions in direct lattice
 exchange correlation table for  LEXCH =        2
   RHO(1)=    0.500       N(1)  =     2000
   RHO(2)=  100.500       N(2)  =     4000

 ion  position               nearest neighbor table
   1  0.000  0.000  0.000-

  LATTYP: Found a face centered cubic cell.
 ALAT       =     4.0900000000

  Lattice vectors:

 A1 = (   2.0450000000,   2.0450000000,   0.0000000000)
 A2 = (   0.0000000000,   2.0450000000,   2.0450000000)
 A3 = (   2.0450000000,   0.0000000000,   2.0450000000)

Analysis of symmetry for initial positions (statically):
 Subroutine PRICEL returns:
 Original cell was already a primitive cell.

 Routine SETGRP: Setting up the symmetry group for a
 face centered cubic supercell.

 Subroutine GETGRP returns: Found 48 space group operations
 (whereof 48 operations were pure point group operations)
 out of a pool of 48 trial point group operations.

The static configuration has the point symmetry O_h .

Analysis of symmetry for dynamics (positions and initial velocities):
 Subroutine PRICEL returns:
 Original cell was already a primitive cell.

 Routine SETGRP: Setting up the symmetry group for a
 face centered cubic supercell.

 Subroutine GETGRP returns: Found 48 space group operations
 (whereof 48 operations were pure point group operations)
 out of a pool of 48 trial point group operations.

The dynamic configuration has the point symmetry O_h .

 KPOINTS: 20x20x20

Automatic generation of k-mesh.
Space group operators:
 irot       det(A)        alpha          n_x          n_y          n_z        tau_x        tau_y        tau_z
    1     1.000000     0.000000     1.000000     0.000000     0.000000     0.000000     0.000000     0.000000
    2    -1.000000     0.000000     1.000000     0.000000     0.000000     0.000000     0.000000     0.000000
    3     1.000000   120.000000    -0.577350    -0.577350    -0.577350     0.000000     0.000000     0.000000
    4    -1.000000   120.000000    -0.577350    -0.577350    -0.577350     0.000000     0.000000     0.000000
    5     1.000000   120.000000     0.577350     0.577350     0.577350     0.000000     0.000000     0.000000
    6    -1.000000   120.000000     0.577350     0.577350     0.577350     0.000000     0.000000     0.000000
    7     1.000000    90.000000     0.000000    -1.000000     0.000000     0.000000     0.000000     0.000000
    8    -1.000000    90.000000     0.000000    -1.000000     0.000000     0.000000     0.000000     0.000000
    9     1.000000   180.000000     0.707107     0.707107     0.000000     0.000000     0.000000     0.000000
   10    -1.000000   180.000000     0.707107     0.707107     0.000000     0.000000     0.000000     0.000000
   11     1.000000    90.000000     1.000000     0.000000     0.000000     0.000000     0.000000     0.000000
   12    -1.000000    90.000000     1.000000     0.000000     0.000000     0.000000     0.000000     0.000000
   13     1.000000   180.000000     0.000000     1.000000     0.000000     0.000000     0.000000     0.000000
   14    -1.000000   180.000000     0.000000     1.000000     0.000000     0.000000     0.000000     0.000000
   15     1.000000   120.000000     0.577350     0.577350    -0.577350     0.000000     0.000000     0.000000
   16    -1.000000   120.000000     0.577350     0.577350    -0.577350     0.000000     0.000000     0.000000
   17     1.000000   120.000000     0.577350    -0.577350    -0.577350     0.000000     0.000000     0.000000
   18    -1.000000   120.000000     0.577350    -0.577350    -0.577350     0.000000     0.000000     0.000000
   19     1.000000    90.000000     0.000000     1.000000     0.000000     0.000000     0.000000     0.000000
   20    -1.000000    90.000000     0.000000     1.000000     0.000000     0.000000     0.000000     0.000000
   21     1.000000    90.000000     0.000000     0.000000    -1.000000     0.000000     0.000000     0.000000
   22    -1.000000    90.000000     0.000000     0.000000    -1.000000     0.000000     0.000000     0.000000
   23     1.000000   180.000000     0.000000     0.707107     0.707107     0.000000     0.000000     0.000000
   24    -1.000000   180.000000     0.000000     0.707107     0.707107     0.000000     0.000000     0.000000
   25     1.000000   120.000000    -0.577350     0.577350     0.577350     0.000000     0.000000     0.000000
   26    -1.000000   120.000000    -0.577350     0.577350     0.577350     0.000000     0.000000     0.000000
   27     1.000000   120.000000    -0.577350     0.577350    -0.577350     0.000000     0.000000     0.000000
   28    -1.000000   120.000000    -0.577350     0.577350    -0.577350     0.000000     0.000000     0.000000
   29     1.000000   180.000000     0.000000     0.000000     1.000000     0.000000     0.000000     0.000000
   30    -1.000000   180.000000     0.000000     0.000000     1.000000     0.000000     0.000000     0.000000
   31     1.000000    90.000000    -1.000000     0.000000     0.000000     0.000000     0.000000     0.000000
   32    -1.000000    90.000000    -1.000000     0.000000     0.000000     0.000000     0.000000     0.000000
   33     1.000000   180.000000     0.707107     0.000000     0.707107     0.000000     0.000000     0.000000
   34    -1.000000   180.000000     0.707107     0.000000     0.707107     0.000000     0.000000     0.000000
   35     1.000000    90.000000     0.000000     0.000000     1.000000     0.000000     0.000000     0.000000
   36    -1.000000    90.000000     0.000000     0.000000     1.000000     0.000000     0.000000     0.000000
   37     1.000000   120.000000    -0.577350    -0.577350     0.577350     0.000000     0.000000     0.000000
   38    -1.000000   120.000000    -0.577350    -0.577350     0.577350     0.000000     0.000000     0.000000
   39     1.000000   180.000000     1.000000     0.000000     0.000000     0.000000     0.000000     0.000000
   40    -1.000000   180.000000     1.000000     0.000000     0.000000     0.000000     0.000000     0.000000
   41     1.000000   120.000000     0.577350    -0.577350     0.577350     0.000000     0.000000     0.000000
   42    -1.000000   120.000000     0.577350    -0.577350     0.577350     0.000000     0.000000     0.000000
   43     1.000000   180.000000     0.707107    -0.707107     0.000000     0.000000     0.000000     0.000000
   44    -1.000000   180.000000     0.707107    -0.707107     0.000000     0.000000     0.000000     0.000000
   45     1.000000   180.000000     0.707107     0.000000    -0.707107     0.000000     0.000000     0.000000
   46    -1.000000   180.000000     0.707107     0.000000    -0.707107     0.000000     0.000000     0.000000
   47     1.000000   180.000000     0.000000    -0.707107     0.707107     0.000000     0.000000     0.000000
   48    -1.000000   180.000000     0.000000    -0.707107     0.707107     0.000000     0.000000     0.000000

 Subroutine IBZKPT returns following result:

 Found    770 irreducible k-points:

 Following reciprocal coordinates:
            Coordinates               Weight
  0.025000  0.025000  0.025000     96.000000
  0.075000  0.025000  0.025000    288.000000
  0.125000  0.025000  0.025000    288.000000
  0.175000  0.025000  0.025000    288.000000
  0.225000  0.025000  0.025000    288.000000
  0.275000  0.025000  0.025000    288.000000
  0.325000  0.025000  0.025000    288.000000
  0.375000  0.025000  0.025000    288.000000
  0.425000  0.025000  0.025000    288.000000
  0.475000  0.025000  0.025000    288.000000
 -0.475000  0.025000  0.025000    288.000000
 -0.425000  0.025000  0.025000    288.000000
 -0.375000  0.025000  0.025000    288.000000
 -0.325000  0.025000  0.025000    288.000000
 -0.275000  0.025000  0.025000    288.000000
 -0.225000  0.025000  0.025000    288.000000
 -0.175000  0.025000  0.025000    288.000000
 -0.125000  0.025000  0.025000    288.000000
 -0.075000  0.025000  0.025000    288.000000
 -0.025000  0.025000  0.025000    288.000000
  0.075000  0.075000  0.025000    288.000000
  0.125000  0.075000  0.025000    576.000000
  0.175000  0.075000  0.025000    576.000000
  0.225000  0.075000  0.025000    576.000000
  0.275000  0.075000  0.025000    576.000000
  0.325000  0.075000  0.025000    576.000000
  0.375000  0.075000  0.025000    576.000000
  0.425000  0.075000  0.025000    576.000000
  0.475000  0.075000  0.025000    576.000000
 -0.475000  0.075000  0.025000    576.000000
 -0.425000  0.075000  0.025000    576.000000
 -0.375000  0.075000  0.025000    576.000000
 -0.325000  0.075000  0.025000    576.000000
 -0.275000  0.075000  0.025000    576.000000
 -0.225000  0.075000  0.025000    576.000000
 -0.175000  0.075000  0.025000    576.000000
 -0.125000  0.075000  0.025000    576.000000
 -0.075000  0.075000  0.025000    576.000000
 -0.025000  0.075000  0.025000    576.000000
  0.125000  0.125000  0.025000    288.000000
  0.175000  0.125000  0.025000    576.000000
  0.225000  0.125000  0.025000    576.000000
  0.275000  0.125000  0.025000    576.000000
  0.325000  0.125000  0.025000    576.000000
  0.375000  0.125000  0.025000    576.000000
  0.425000  0.125000  0.025000    576.000000
  0.475000  0.125000  0.025000    576.000000
 -0.475000  0.125000  0.025000    576.000000
 -0.425000  0.125000  0.025000    576.000000
 -0.375000  0.125000  0.025000    576.000000
 -0.325000  0.125000  0.025000    576.000000
 -0.275000  0.125000  0.025000    576.000000
 -0.225000  0.125000  0.025000    576.000000
 -0.175000  0.125000  0.025000    576.000000
 -0.125000  0.125000  0.025000    576.000000
 -0.075000  0.125000  0.025000    576.000000
 -0.025000  0.125000  0.025000    576.000000
  0.175000  0.175000  0.025000    288.000000
  0.225000  0.175000  0.025000    576.000000
  0.275000  0.175000  0.025000    576.000000
[...]
 -0.425000  0.475000  0.375000    576.000000
 -0.375000  0.475000  0.375000    576.000000
 -0.475000 -0.475000  0.375000    288.000000
 -0.425000 -0.475000  0.375000    576.000000
 -0.425000 -0.425000  0.375000    288.000000
  0.425000  0.425000  0.425000     96.000000
  0.475000  0.425000  0.425000    288.000000
 -0.475000  0.425000  0.425000    288.000000
 -0.425000  0.425000  0.425000    288.000000
  0.475000  0.475000  0.425000    288.000000
 -0.475000  0.475000  0.425000    576.000000
 -0.425000  0.475000  0.425000    576.000000
 -0.475000 -0.475000  0.425000    288.000000
  0.475000  0.475000  0.475000     96.000000
 -0.475000  0.475000  0.475000    288.000000

 Following cartesian coordinates:
            Coordinates               Weight
  0.025000  0.025000  0.025000     96.000000
[...]
y     0.0037    0.0000   -0.0010   -0.0000    0.0005   -0.0000   -0.0003    0.0000    0.0002   -0.0000
y    -0.0001   -0.0000    0.0001   -0.0000   -0.0001    0.0000
z    11.0000    0.0000    4.6325    0.0000    0.7517    0.0000    0.0104    0.0000    0.0092   -0.0000
z     0.0037   -0.0000   -0.0010   -0.0000    0.0005   -0.0000   -0.0003   -0.0000    0.0002   -0.0000
z    -0.0001    0.0000    0.0001   -0.0000   -0.0001    0.0000

------------------------ aborting loop because EDIFF is reached ----------------------------------------

  FORCE on cell =-STRESS in cart. coord.  units (eV):
  Direction    XX          YY          ZZ          XY          YZ          ZX
  Alpha Z   102.20864   102.20864   102.20864
  Ewald    -325.53162  -325.53162  -325.53162     0.00000     0.00000    -0.00000
  Hartree    62.73473    62.73473    62.73473     0.00000     0.00000     0.00000
  E(xc)     -57.12723   -57.12723   -57.12723     0.00000     0.00000     0.00000
  Local     103.34713   103.34713   103.34713     0.00018     0.00018     0.00018
  n-local   -64.30324   -65.53461   -65.46387    -0.24265    -0.00393     0.21707
  augment    41.67546    41.67546    41.67546    -0.00002    -0.00002    -0.00002
  Kinetic   136.13265   137.80136   136.23574     0.37309    -0.00751    -0.41309
  Fock        0.00000     0.00000     0.00000     0.00000     0.00000     0.00000
  Total      -1.07021    -1.07021    -1.07021     0.00000     0.00000     0.00000
  in kB    -100.24672  -100.24672  -100.24672     0.00000     0.00000     0.00000

 VOLUME and BASIS-vectors are now :
  energy-cutoff  :      249.75
  volume of cell :       17.10
      direct lattice vectors                 reciprocal lattice vectors
     2.045000000  2.045000000  0.000000000     0.244498778  0.244498778 -0.244498778
     0.000000000  2.045000000  2.045000000    -0.244498778  0.244498778  0.244498778
     2.045000000  0.000000000  2.045000000     0.244498778 -0.244498778  0.244498778

  length of vectors
     2.892066735  2.892066735  2.892066735     0.423484305  0.423484305  0.423484305

 FORCES acting on ions
    electron-ion (+dipol)            ewald-force                    non-local-force                 convergence-correction
   0.345E-13 0.331E-13 0.301E-13   0.876E-16 -.294E-14 -.125E-14   0.000E+00 0.000E+00 0.000E+00   -.861E-13 -.103E-12 -.903E-13
   0.345E-13 0.331E-13 0.301E-13   0.876E-16 -.294E-14 -.125E-14   0.000E+00 0.000E+00 0.000E+00   -.861E-13 -.103E-12 -.903E-13

 POSITION                                       TOTAL-FORCE (eV/Angst)
      0.00000      0.00000      0.00000         0.000000     -0.000000     -0.000000
    total drift:                               -0.000000     -0.000000     -0.000000

  FREE ENERGIE OF THE ION-ELECTRON SYSTEM (eV)
  free  energy   TOTEN  =        -3.72452783 eV

  energy  without entropy=       -3.72389680  energy(sigma->0) =       -3.72431748

 writing wavefunctions

 plasma frequency squared (from intraband transitions)
      98.103      -0.000       0.000
      -0.000      98.103       0.000
       0.000       0.000      98.103

 electrical conductivity sigma (Mega S m-1) (frequency dependency in vasprun.xml)
       0.200       0.000      -0.000
       0.000       0.200       0.000
       0.000       0.000       0.200

 plasma frequency squared (from intraband transitions)

 plasma frequency squared (from interband transitions, int dw w eps(2)(w)
     628.582       0.000       0.000
       0.000     628.582      -0.000
       0.000      -0.000     628.582
 plasma frequency squared  (valence only):     886.760

  frequency dependent IMAGINARY DIELECTRIC FUNCTION (independent particle, no local field effects)
     E(ev)      X         Y         Z        XY        YZ        ZX
    0.000000    0.000000    0.000000    0.000000    0.000000    0.000000    0.000000
    0.688008    0.021730    0.021730    0.021730    0.000000   -0.000000    0.000000
    1.376016    0.053630    0.053630    0.053630    0.000000   -0.000000    0.000000
    2.064023    0.126722    0.126722    0.126722    0.000000   -0.000000    0.000000
    2.752031    0.774606    0.774606    0.774606    0.000000   -0.000000    0.000000
    3.440039    4.402082    4.402082    4.402082    0.000000    0.000000    0.000000
    4.128047    5.476748    5.476748    5.476748    0.000000   -0.000000    0.000000
    4.816054    4.234758    4.234758    4.234758    0.000000    0.000000   -0.000000
    5.504062    3.294415    3.294415    3.294415   -0.000000    0.000000   -0.000000
    6.192070    2.564765    2.564765    2.564765    0.000000   -0.000000    0.000000
    6.880078    2.012403    2.012403    2.012403   -0.000000    0.000000   -0.000000
    7.568085    1.864372    1.864372    1.864372    0.000000   -0.000000    0.000000
    8.256093    1.975968    1.975968    1.975968    0.000000    0.000000    0.000000
    8.944101    1.817249    1.817249    1.817249    0.000000    0.000000    0.000000
    9.632109    1.835650    1.835650    1.835650    0.000000    0.000000    0.000000
   10.320116    1.894936    1.894936    1.894936   -0.000000   -0.000000   -0.000000
   11.008124    1.614901    1.614901    1.614901   -0.000000   -0.000000   -0.000000
   11.696132    1.654626    1.654626    1.654626    0.000000   -0.000000    0.000000
   12.384140    1.796911    1.796911    1.796911   -0.000000   -0.000000   -0.000000
   13.072147    2.076474    2.076474    2.076474    0.000000   -0.000000    0.000000
   13.760155    2.022476    2.022476    2.022476    0.000000   -0.000000   -0.000000
   14.448163    1.783533    1.783533    1.783533   -0.000000    0.000000   -0.000000
   15.136171    1.629517    1.629517    1.629517    0.000000   -0.000000    0.000000
   15.824178    1.530918    1.530918    1.530918   -0.000000    0.000000   -0.000000
   16.512186    1.404181    1.404181    1.404181   -0.000000    0.000000    0.000000
   17.200194    1.272211    1.272211    1.272211    0.000000   -0.000000    0.000000
   17.888202    1.147210    1.147210    1.147210   -0.000000   -0.000000    0.000000
   18.576210    1.084773    1.084773    1.084773   -0.000000   -0.000000   -0.000000
   19.264217    0.986337    0.986337    0.986337    0.000000    0.000000   -0.000000
   19.952225    1.066156    1.066156    1.066156    0.000000   -0.000000    0.000000
   20.640233    1.739797    1.739797    1.739797    0.000000   -0.000000   -0.000000
   21.328241    1.782339    1.782339    1.782339   -0.000000   -0.000000   -0.000000
   22.016248    1.519168    1.519168    1.519168    0.000000    0.000000   -0.000000
   22.704256    1.312376    1.312376    1.312376    0.000000   -0.000000    0.000000
   23.392264    1.172419    1.172419    1.172419    0.000000   -0.000000    0.000000
   24.080272    0.963357    0.963357    0.963357   -0.000000   -0.000000    0.000000
   24.768279    0.689878    0.689878    0.689878    0.000000   -0.000000    0.000000
   25.456287    0.530285    0.530285    0.530285    0.000000   -0.000000    0.000000
   26.144295    0.565766    0.565766    0.565766    0.000000   -0.000000    0.000000
   26.832303    0.637365    0.637365    0.637365    0.000000   -0.000000    0.000000
   27.520310    0.625012    0.625012    0.625012    0.000000   -0.000000    0.000000
   28.208318    0.622386    0.622386    0.622386    0.000000   -0.000000    0.000000
   28.896326    0.651032    0.651032    0.651032    0.000000   -0.000000    0.000000
   29.584334    0.698581    0.698581    0.698581    0.000000    0.000000    0.000000
   30.272341    0.744600    0.744600    0.744600   -0.000000    0.000000    0.000000
   30.960349    0.793715    0.793715    0.793715    0.000000   -0.000000   -0.000000
   31.648357    0.734430    0.734430    0.734430    0.000000    0.000000    0.000000
   32.336365    0.643608    0.643608    0.643608   -0.000000    0.000000   -0.000000
   33.024372    0.610606    0.610606    0.610606   -0.000000    0.000000   -0.000000
   33.712380    0.558176    0.558176    0.558176    0.000000   -0.000000    0.000000
   34.400388    0.558883    0.558883    0.558883   -0.000000   -0.000000   -0.000000
   35.088396    0.485272    0.485272    0.485272   -0.000000   -0.000000    0.000000
   35.776404    0.474619    0.474619    0.474619   -0.000000    0.000000   -0.000000
   36.464411    0.548734    0.548734    0.548734   -0.000000   -0.000000   -0.000000
   37.152419    0.578997    0.578997    0.578997   -0.000000   -0.000000   -0.000000
   37.840427    0.493394    0.493394    0.493394   -0.000000   -0.000000   -0.000000
   38.528435    0.553547    0.553547    0.553547    0.000000    0.000000   -0.000000
   39.216442    0.491872    0.491872    0.491872    0.000000   -0.000000   -0.000000
   39.904450    0.492718    0.492718    0.492718    0.000000   -0.000000    0.000000
   40.592458    0.458637    0.458637    0.458637    0.000000   -0.000000   -0.000000
[...]
   58.480660    0.001881    0.001881    0.001881    0.000000    0.000000    0.000000
   59.168667    0.001703    0.001703    0.001703    0.000000    0.000000    0.000000
   59.856675    0.001555    0.001555    0.001555    0.000000   -0.000000    0.000000
   60.544683    0.001429    0.001429    0.001429    0.000000   -0.000000    0.000000
   61.232691    0.001320    0.001320    0.001320    0.000000   -0.000000    0.000000
   61.920698    0.001226    0.001226    0.001226    0.000000   -0.000000    0.000000
   62.608706    0.001143    0.001143    0.001143    0.000000   -0.000000    0.000000
   63.296714    0.001069    0.001069    0.001069    0.000000   -0.000000    0.000000
   63.984722    0.001003    0.001003    0.001003    0.000000   -0.000000    0.000000
   64.672729    0.000944    0.000944    0.000944    0.000000   -0.000000    0.000000
   65.360737    0.000890    0.000890    0.000890    0.000000   -0.000000    0.000000
   66.048745    0.000841    0.000841    0.000841    0.000000   -0.000000    0.000000
   66.736753    0.000797    0.000797    0.000797    0.000000   -0.000000    0.000000
   67.424760    0.000756    0.000756    0.000756    0.000000   -0.000000    0.000000
   68.112768    0.000719    0.000719    0.000719    0.000000   -0.000000    0.000000

  frequency dependent      REAL DIELECTRIC FUNCTION (independent particle, no local field effects)
     E(ev)      X         Y         Z        XY        YZ        ZX
    0.000000    4.887876    4.887876    4.887876    0.000000   -0.000000    0.000000
    0.688008    4.960098    4.960098    4.960098    0.000000   -0.000000    0.000000
    1.376016    5.208049    5.208049    5.208049    0.000000   -0.000000    0.000000
    2.064023    5.779704    5.779704    5.779704    0.000000   -0.000000    0.000000
    2.752031    7.643230    7.643230    7.643230    0.000000   -0.000000    0.000000
    3.440039    6.961832    6.961832    6.961832    0.000000   -0.000000   -0.000000
    4.128047    3.605877    3.605877    3.605877   -0.000000    0.000000   -0.000000
    4.816054    2.051339    2.051339    2.051339   -0.000000   -0.000000   -0.000000
    5.504062    1.522605    1.522605    1.522605   -0.000000    0.000000   -0.000000
    6.192070    1.347338    1.347338    1.347338   -0.000000    0.000000   -0.000000
    6.880078    1.578997    1.578997    1.578997   -0.000000    0.000000   -0.000000
    7.568085    1.869820    1.869820    1.869820   -0.000000    0.000000   -0.000000
    8.256093    1.838276    1.838276    1.838276    0.000000    0.000000    0.000000
    8.944101    1.662357    1.662357    1.662357   -0.000000    0.000000   -0.000000
    9.632109    1.763680    1.763680    1.763680    0.000000    0.000000    0.000000
   10.320116    1.645514    1.645514    1.645514    0.000000   -0.000000   -0.000000
   11.008124    1.615816    1.615816    1.615816   -0.000000   -0.000000   -0.000000
   11.696132    1.677864    1.677864    1.677864   -0.000000   -0.000000   -0.000000
   12.384140    1.694077    1.694077    1.694077    0.000000   -0.000000   -0.000000
   13.072147    1.583400    1.583400    1.583400    0.000000   -0.000000    0.000000
   13.760155    1.214068    1.214068    1.214068   -0.000000   -0.000000   -0.000000
   14.448163    0.970774    0.970774    0.970774    0.000000   -0.000000    0.000000
   15.136171    0.778453    0.778453    0.778453   -0.000000   -0.000000   -0.000000
   15.824178    0.799291    0.799291    0.799291    0.000000   -0.000000    0.000000
   16.512186    0.839942    0.839942    0.839942   -0.000000    0.000000    0.000000
   17.200194    0.914024    0.914024    0.914024   -0.000000   -0.000000   -0.000000
   17.888202    0.893377    0.893377    0.893377   -0.000000   -0.000000   -0.000000
   18.576210    0.926976    0.926976    0.926976   -0.000000    0.000000   -0.000000
   19.264217    1.114326    1.114326    1.114326    0.000000   -0.000000   -0.000000
   19.952225    1.360836    1.360836    1.360836   -0.000000   -0.000000   -0.000000
   20.640233    1.387271    1.387271    1.387271    0.000000   -0.000000    0.000000
   21.328241    0.805859    0.805859    0.805859   -0.000000    0.000000   -0.000000
   22.016248    0.430349    0.430349    0.430349    0.000000    0.000000    0.000000
   22.704256    0.444446    0.444446    0.444446    0.000000   -0.000000    0.000000
   23.392264    0.318279    0.318279    0.318279   -0.000000    0.000000   -0.000000
   24.080272    0.249111    0.249111    0.249111    0.000000    0.000000    0.000000
   24.768279    0.354057    0.354057    0.354057   -0.000000    0.000000   -0.000000
   25.456287    0.535575    0.535575    0.535575   -0.000000    0.000000   -0.000000
   26.144295    0.692036    0.692036    0.692036   -0.000000    0.000000    0.000000
   26.832303    0.739226    0.739226    0.739226    0.000000   -0.000000    0.000000
   27.520310    0.777824    0.777824    0.777824    0.000000    0.000000    0.000000
   28.208318    0.730417    0.730417    0.730417   -0.000000    0.000000   -0.000000
   28.896326    0.795197    0.795197    0.795197   -0.000000    0.000000   -0.000000
   29.584334    0.807576    0.807576    0.807576   -0.000000    0.000000   -0.000000
   30.272341    0.837342    0.837342    0.837342    0.000000   -0.000000   -0.000000
   30.960349    0.687982    0.687982    0.687982    0.000000    0.000000   -0.000000
   31.648357    0.652965    0.652965    0.652965   -0.000000    0.000000    0.000000
   32.336365    0.623031    0.623031    0.623031   -0.000000   -0.000000   -0.000000
   33.024372    0.633053    0.633053    0.633053   -0.000000   -0.000000   -0.000000
   33.712380    0.631596    0.631596    0.631596   -0.000000   -0.000000   -0.000000
   34.400388    0.600397    0.600397    0.600397    0.000000    0.000000    0.000000
   35.088396    0.636521    0.636521    0.636521   -0.000000    0.000000   -0.000000
   35.776404    0.712441    0.712441    0.712441   -0.000000    0.000000   -0.000000
   36.464411    0.741218    0.741218    0.741218   -0.000000   -0.000000   -0.000000
   37.152419    0.640470    0.640470    0.640470   -0.000000   -0.000000   -0.000000
   37.840427    0.670679    0.670679    0.670679    0.000000   -0.000000   -0.000000
   38.528435    0.649075    0.649075    0.649075    0.000000   -0.000000    0.000000
   39.216442    0.630601    0.630601    0.630601    0.000000   -0.000000    0.000000
   39.904450    0.631731    0.631731    0.631731   -0.000000    0.000000   -0.000000
   40.592458    0.601843    0.601843    0.601843   -0.000000   -0.000000   -0.000000
[...]
   58.480660    0.713713    0.713713    0.713713   -0.000000    0.000000   -0.000000
   59.168667    0.726022    0.726022    0.726022   -0.000000    0.000000   -0.000000
   59.856675    0.737213    0.737213    0.737213   -0.000000    0.000000   -0.000000
   60.544683    0.747464    0.747464    0.747464   -0.000000    0.000000   -0.000000
   61.232691    0.756912    0.756912    0.756912   -0.000000    0.000000   -0.000000
   61.920698    0.765663    0.765663    0.765663   -0.000000    0.000000   -0.000000
   62.608706    0.773804    0.773804    0.773804   -0.000000    0.000000   -0.000000
   63.296714    0.781408    0.781408    0.781408   -0.000000    0.000000   -0.000000
   63.984722    0.788531    0.788531    0.788531   -0.000000    0.000000   -0.000000
   64.672729    0.795225    0.795225    0.795225   -0.000000    0.000000   -0.000000
   65.360737    0.801530    0.801530    0.801530   -0.000000    0.000000   -0.000000
   66.048745    0.807484    0.807484    0.807484   -0.000000    0.000000   -0.000000
   66.736753    0.813118    0.813118    0.813118   -0.000000    0.000000   -0.000000
   67.424760    0.818458    0.818458    0.818458   -0.000000    0.000000   -0.000000
   68.112768    0.823530    0.823530    0.823530   -0.000000    0.000000   -0.000000

 The outermost node in the dielectric function lies at epsilon=  -1.0