 vasp.5.4.4.18Apr17-6-g9f103f2a35 (build May 20 2018 16:52:39) complex

 executed on             LinuxIFC date 2022.11.06  14:47:15

 INCAR:
 POTCAR:    PAW Si
 POTCAR:    PAW Si
   VRHFIN =Si: s2p2

   TITEL  = PAW Si
   POMASS =   28.085; ZVAL   =    4.000    mass and valenz
   ENMAX  =  245.435; ENMIN  =  184.076 eV
   QCUT   =   -4.247; QGAM   =    8.494    optimization parameters

   Description
     l     E      TYP  RCUT    TYP  RCUT
     0   .000     23  1.900
     0   .000     23  1.900
     1   .000     23  1.900
     1   .000     23  1.900
     2   .000      7  1.900

  PAW Si                                :

 POSCAR: Si
  positions in direct lattice
 exchange correlation table for  LEXCH =        7
   RHO(1)=    0.500       N(1)  =     2000
   RHO(2)=  100.500       N(2)  =     4000

 ion  position               nearest neighbor table
   1  0.000  0.000  0.000-   2 2.37   2 2.37   2 2.37   2 2.37
   2  0.250  0.250  0.250-   1 2.37   1 2.37   1 2.37   1 2.37

  LATTYP: Found a face centered cubic cell.
 ALAT       =     5.4640000000

  Lattice vectors:

 A1 = (   0.0000000000,   2.7320000000,   2.7320000000)
 A2 = (   2.7320000000,   0.0000000000,   2.7320000000)
 A3 = (   2.7320000000,   2.7320000000,   0.0000000000)

Analysis of symmetry for initial positions (statically):
 Subroutine PRICEL returns:
 Original cell was already a primitive cell.

 Routine SETGRP: Setting up the symmetry group for a
 face centered cubic supercell.

 Subroutine GETGRP returns: Found 48 space group operations
 (whereof 24 operations were pure point group operations)
 out of a pool of 48 trial point group operations.

The static configuration has the point symmetry T_d .
 The point group associated with its full space group is O_h .

Analysis of symmetry for dynamics (positions and initial velocities):
 Subroutine PRICEL returns:
 Original cell was already a primitive cell.

 Routine SETGRP: Setting up the symmetry group for a
 face centered cubic supercell.

 Subroutine GETGRP returns: Found 48 space group operations
 (whereof 24 operations were pure point group operations)
 out of a pool of 48 trial point group operations.

The dynamic configuration has the point symmetry T_d .
 The point group associated with its full space group is O_h .

 Subroutine INISYM returns: Found 48 space group operations
 (whereof 24 operations are pure point group operations),
 and found     1 'primitive' translations

 KPOINTS: 30x30x30

Automatic generation of k-mesh.
Space group operators:
 irot       det(A)        alpha          n_x          n_y          n_z        tau_x        tau_y        tau_z
    1     1.000000     0.000000     1.000000     0.000000     0.000000     0.000000     0.000000     0.000000
    2     1.000000   120.000000    -0.577350    -0.577350    -0.577350     0.000000     0.000000     0.000000
    3     1.000000   120.000000     0.577350     0.577350     0.577350     0.000000     0.000000     0.000000
    4    -1.000000    90.000000     0.000000     0.000000    -1.000000     0.000000     0.000000     0.000000
    5    -1.000000   180.000000     0.000000     0.707107     0.707107     0.000000     0.000000     0.000000
    6    -1.000000    90.000000     0.000000     1.000000     0.000000     0.000000     0.000000     0.000000
    7     1.000000   180.000000     0.000000     0.000000     1.000000     0.000000     0.000000     0.000000
    8     1.000000   120.000000    -0.577350     0.577350     0.577350     0.000000     0.000000     0.000000
    9     1.000000   120.000000    -0.577350     0.577350    -0.577350     0.000000     0.000000     0.000000
   10    -1.000000    90.000000     0.000000     0.000000     1.000000     0.000000     0.000000     0.000000
   11    -1.000000    90.000000    -1.000000     0.000000     0.000000     0.000000     0.000000     0.000000
   12    -1.000000   180.000000     0.707107     0.000000     0.707107     0.000000     0.000000     0.000000
   13     1.000000   120.000000     0.577350    -0.577350     0.577350     0.000000     0.000000     0.000000
   14     1.000000   120.000000    -0.577350    -0.577350     0.577350     0.000000     0.000000     0.000000
   15     1.000000   180.000000     1.000000     0.000000     0.000000     0.000000     0.000000     0.000000
   16    -1.000000    90.000000     0.000000    -1.000000     0.000000     0.000000     0.000000     0.000000
   17    -1.000000   180.000000     0.707107     0.707107     0.000000     0.000000     0.000000     0.000000
   18    -1.000000    90.000000     1.000000     0.000000     0.000000     0.000000     0.000000     0.000000
   19     1.000000   120.000000     0.577350    -0.577350    -0.577350     0.000000     0.000000     0.000000
   20     1.000000   180.000000     0.000000     1.000000     0.000000     0.000000     0.000000     0.000000
   21     1.000000   120.000000     0.577350     0.577350    -0.577350     0.000000     0.000000     0.000000
   22    -1.000000   180.000000     0.000000    -0.707107     0.707107     0.000000     0.000000     0.000000
   23    -1.000000   180.000000     0.707107    -0.707107     0.000000     0.000000     0.000000     0.000000
   24    -1.000000   180.000000     0.707107     0.000000    -0.707107     0.000000     0.000000     0.000000
   25    -1.000000     0.000000     1.000000     0.000000     0.000000     0.250000     0.250000     0.250000
   26    -1.000000   120.000000    -0.577350    -0.577350    -0.577350     0.250000     0.250000     0.250000
   27    -1.000000   120.000000     0.577350     0.577350     0.577350     0.250000     0.250000     0.250000
   28     1.000000    90.000000     0.000000     0.000000    -1.000000     0.250000     0.250000     0.250000
   29     1.000000   180.000000     0.000000     0.707107     0.707107     0.250000     0.250000     0.250000
   30     1.000000    90.000000     0.000000     1.000000     0.000000     0.250000     0.250000     0.250000
   31    -1.000000   180.000000     0.000000     0.000000     1.000000     0.250000     0.250000     0.250000
   32    -1.000000   120.000000    -0.577350     0.577350     0.577350     0.250000     0.250000     0.250000
   33    -1.000000   120.000000    -0.577350     0.577350    -0.577350     0.250000     0.250000     0.250000
   34     1.000000    90.000000     0.000000     0.000000     1.000000     0.250000     0.250000     0.250000
   35     1.000000    90.000000    -1.000000     0.000000     0.000000     0.250000     0.250000     0.250000
   36     1.000000   180.000000     0.707107     0.000000     0.707107     0.250000     0.250000     0.250000
   37    -1.000000   120.000000     0.577350    -0.577350     0.577350     0.250000     0.250000     0.250000
   38    -1.000000   120.000000    -0.577350    -0.577350     0.577350     0.250000     0.250000     0.250000
   39    -1.000000   180.000000     1.000000     0.000000     0.000000     0.250000     0.250000     0.250000
   40     1.000000    90.000000     0.000000    -1.000000     0.000000     0.250000     0.250000     0.250000
   41     1.000000   180.000000     0.707107     0.707107     0.000000     0.250000     0.250000     0.250000
   42     1.000000    90.000000     1.000000     0.000000     0.000000     0.250000     0.250000     0.250000
   43    -1.000000   120.000000     0.577350    -0.577350    -0.577350     0.250000     0.250000     0.250000
   44    -1.000000   180.000000     0.000000     1.000000     0.000000     0.250000     0.250000     0.250000
   45    -1.000000   120.000000     0.577350     0.577350    -0.577350     0.250000     0.250000     0.250000
   46     1.000000   180.000000     0.000000    -0.707107     0.707107     0.250000     0.250000     0.250000
   47     1.000000   180.000000     0.707107    -0.707107     0.000000     0.250000     0.250000     0.250000
   48     1.000000   180.000000     0.707107     0.000000    -0.707107     0.250000     0.250000     0.250000

 Subroutine IBZKPT returns following result:

 Found   2480 irreducible k-points:

 Following reciprocal coordinates:
            Coordinates               Weight
  0.016667  0.016667  0.016667     96.000000
  0.050000  0.016667  0.016667    288.000000
  0.083333  0.016667  0.016667    288.000000
  0.116667  0.016667  0.016667    288.000000
  0.150000  0.016667  0.016667    288.000000
  0.183333  0.016667  0.016667    288.000000
  0.216667  0.016667  0.016667    288.000000
  0.250000  0.016667  0.016667    288.000000
  0.283333  0.016667  0.016667    288.000000
  0.316667  0.016667  0.016667    288.000000
  0.350000  0.016667  0.016667    288.000000
  0.383333  0.016667  0.016667    288.000000
  0.416667  0.016667  0.016667    288.000000
  0.450000  0.016667  0.016667    288.000000
  0.483333  0.016667  0.016667    288.000000
 -0.483333  0.016667  0.016667    288.000000
 -0.450000  0.016667  0.016667    288.000000
 -0.416667  0.016667  0.016667    288.000000
 -0.383333  0.016667  0.016667    288.000000
 -0.350000  0.016667  0.016667    288.000000
 -0.316667  0.016667  0.016667    288.000000
 -0.283333  0.016667  0.016667    288.000000
 -0.250000  0.016667  0.016667    288.000000
 -0.216667  0.016667  0.016667    288.000000
 -0.183333  0.016667  0.016667    288.000000
 -0.150000  0.016667  0.016667    288.000000
 -0.116667  0.016667  0.016667    288.000000
 -0.083333  0.016667  0.016667    288.000000
 -0.050000  0.016667  0.016667    288.000000
 -0.016667  0.016667  0.016667    288.000000
  0.050000  0.050000  0.016667    288.000000
  0.083333  0.050000  0.016667    576.000000
  0.116667  0.050000  0.016667    576.000000
  0.150000  0.050000  0.016667    576.000000
  0.183333  0.050000  0.016667    576.000000
  0.216667  0.050000  0.016667    576.000000
  0.250000  0.050000  0.016667    576.000000
  0.283333  0.050000  0.016667    576.000000
  0.316667  0.050000  0.016667    576.000000
  0.350000  0.050000  0.016667    576.000000
  0.383333  0.050000  0.016667    576.000000
  0.416667  0.050000  0.016667    576.000000
  0.450000  0.050000  0.016667    576.000000
  0.483333  0.050000  0.016667    576.000000
 -0.483333  0.050000  0.016667    576.000000
 -0.450000  0.050000  0.016667    576.000000
 -0.416667  0.050000  0.016667    576.000000
 -0.383333  0.050000  0.016667    576.000000
 -0.350000  0.050000  0.016667    576.000000
 -0.316667  0.050000  0.016667    576.000000
 -0.283333  0.050000  0.016667    576.000000
 -0.250000  0.050000  0.016667    576.000000
 -0.216667  0.050000  0.016667    576.000000
 -0.183333  0.050000  0.016667    576.000000
 -0.150000  0.050000  0.016667    576.000000
 -0.116667  0.050000  0.016667    576.000000
 -0.083333  0.050000  0.016667    576.000000
 -0.050000  0.050000  0.016667    576.000000
 -0.016667  0.050000  0.016667    576.000000
  0.083333  0.083333  0.016667    288.000000
[...]
 -0.450000  0.483333  0.416667    576.000000
 -0.416667  0.483333  0.416667    576.000000
 -0.483333 -0.483333  0.416667    288.000000
 -0.450000 -0.483333  0.416667    576.000000
 -0.450000 -0.450000  0.416667    288.000000
  0.450000  0.450000  0.450000     96.000000
  0.483333  0.450000  0.450000    288.000000
 -0.483333  0.450000  0.450000    288.000000
 -0.450000  0.450000  0.450000    288.000000
[...]
   0.08333333  0.08333333  0.01666667       0.000
[...]
  -0.45000000  0.48333333  0.41666667       0.000
  -0.41666667  0.48333333  0.41666667       0.000
  -0.48333333 -0.48333333  0.41666667       0.000
  -0.45000000 -0.48333333  0.41666667       0.000
  -0.45000000 -0.45000000  0.41666667       0.000
   0.45000000  0.45000000  0.45000000       0.000
   0.48333333  0.45000000  0.45000000       0.000
  -0.48333333  0.45000000  0.45000000       0.000
  -0.45000000  0.45000000  0.45000000       0.000
   0.48333333  0.48333333  0.45000000       0.000
  -0.48333333  0.48333333  0.45000000       0.000
  -0.45000000  0.48333333  0.45000000       0.000
  -0.48333333 -0.48333333  0.45000000       0.000
   0.48333333  0.48333333  0.48333333       0.000
  -0.48333333  0.48333333  0.48333333       0.000

 position of ions in fractional coordinates (direct lattice)
   0.00000000  0.00000000  0.00000000
   0.25000000  0.25000000  0.25000000

 position of ions in cartesian coordinates  (Angst):
   0.00000000  0.00000000  0.00000000
   1.36600000  1.36600000  1.36600000

 k-point  1 :   0.0167 0.0167 0.0167  plane waves:     339
 k-point  2 :   0.0500 0.0167 0.0167  plane waves:     338
 k-point  3 :   0.0833 0.0167 0.0167  plane waves:     337
 k-point  4 :   0.1167 0.0167 0.0167  plane waves:     338
 k-point  5 :   0.1500 0.0167 0.0167  plane waves:     343
 k-point  6 :   0.1833 0.0167 0.0167  plane waves:     352
 k-point  7 :   0.2167 0.0167 0.0167  plane waves:     356
 k-point  8 :   0.2500 0.0167 0.0167  plane waves:     355
 k-point  9 :   0.2833 0.0167 0.0167  plane waves:     352
 k-point 10 :   0.3167 0.0167 0.0167  plane waves:     353
 k-point 11 :   0.3500 0.0167 0.0167  plane waves:     359
 k-point 12 :   0.3833 0.0167 0.0167  plane waves:     355
 k-point 13 :   0.4167 0.0167 0.0167  plane waves:     353
 k-point 14 :   0.4500 0.0167 0.0167  plane waves:     356
 k-point 15 :   0.4833 0.0167 0.0167  plane waves:     356
 k-point 16 :  -0.4833 0.0167 0.0167  plane waves:     354
 k-point 17 :  -0.4500 0.0167 0.0167  plane waves:     356
 k-point 18 :  -0.4167 0.0167 0.0167  plane waves:     356
 k-point 19 :  -0.3833 0.0167 0.0167  plane waves:     353
 k-point 20 :  -0.3500 0.0167 0.0167  plane waves:     355
 k-point 21 :  -0.3167 0.0167 0.0167  plane waves:     359
 k-point 22 :  -0.2833 0.0167 0.0167  plane waves:     353
 k-point 23 :  -0.2500 0.0167 0.0167  plane waves:     351
 k-point 24 :  -0.2167 0.0167 0.0167  plane waves:     356
 k-point 25 :  -0.1833 0.0167 0.0167  plane waves:     356
 k-point 26 :  -0.1500 0.0167 0.0167  plane waves:     348
 k-point 27 :  -0.1167 0.0167 0.0167  plane waves:     341
 k-point 28 :  -0.0833 0.0167 0.0167  plane waves:     336
 k-point 29 :  -0.0500 0.0167 0.0167  plane waves:     338
 k-point 30 :  -0.0167 0.0167 0.0167  plane waves:     339
 k-point 31 :   0.0500 0.0500 0.0167  plane waves:     338
 k-point 32 :   0.0833 0.0500 0.0167  plane waves:     337
 k-point 33 :   0.1167 0.0500 0.0167  plane waves:     338
 k-point 34 :   0.1500 0.0500 0.0167  plane waves:     344
 k-point 35 :   0.1833 0.0500 0.0167  plane waves:     349
 k-point 36 :   0.2167 0.0500 0.0167  plane waves:     352
 k-point 37 :   0.2500 0.0500 0.0167  plane waves:     355
 k-point 38 :   0.2833 0.0500 0.0167  plane waves:     351
 k-point 39 :   0.3167 0.0500 0.0167  plane waves:     352
 k-point 40 :   0.3500 0.0500 0.0167  plane waves:     354
 k-point 41 :   0.3833 0.0500 0.0167  plane waves:     356
 k-point 42 :   0.4167 0.0500 0.0167  plane waves:     355
 k-point 43 :   0.4500 0.0500 0.0167  plane waves:     356
 k-point 44 :   0.4833 0.0500 0.0167  plane waves:     355
 k-point 45 :  -0.4833 0.0500 0.0167  plane waves:     355
 k-point 46 :  -0.4500 0.0500 0.0167  plane waves:     356
 k-point 47 :  -0.4167 0.0500 0.0167  plane waves:     355
 k-point 48 :  -0.3833 0.0500 0.0167  plane waves:     354
 k-point 49 :  -0.3500 0.0500 0.0167  plane waves:     356
 k-point 50 :  -0.3167 0.0500 0.0167  plane waves:     356
 k-point 51 :  -0.2833 0.0500 0.0167  plane waves:     353
 k-point 52 :  -0.2500 0.0500 0.0167  plane waves:     352
 k-point 53 :  -0.2167 0.0500 0.0167  plane waves:     356
 k-point 54 :  -0.1833 0.0500 0.0167  plane waves:     355
 k-point 55 :  -0.1500 0.0500 0.0167  plane waves:     351
 k-point 56 :  -0.1167 0.0500 0.0167  plane waves:     346
 k-point 57 :  -0.0833 0.0500 0.0167  plane waves:     340
 k-point 58 :  -0.0500 0.0500 0.0167  plane waves:     337
 k-point 59 :  -0.0167 0.0500 0.0167  plane waves:     337
 k-point 60 :   0.0833 0.0833 0.0167  plane waves:     335
[...]
 k-point 85 :  -0.0833 0.0833 0.0167  plane waves:     344
 k-point 86 :  -0.0500 0.0833 0.0167  plane waves:     340
 k-point 87 :  -0.0167 0.0833 0.0167  plane waves:     337
 k-point 88 :   0.1167 0.1167 0.0167  plane waves:     341
 k-point 89 :   0.1500 0.1167 0.0167  plane waves:     345
 k-point 90 :   0.1833 0.1167 0.0167  plane waves:     346
 k-point 91 :   0.2167 0.1167 0.0167  plane waves:     349
 k-point 92 :   0.2500 0.1167 0.0167  plane waves:     351
 k-point 93 :   0.2833 0.1167 0.0167  plane waves:     352
 k-point 94 :   0.3167 0.1167 0.0167  plane waves:     350
 k-point 95 :   0.3500 0.1167 0.0167  plane waves:     354
 k-point 96 :   0.3833 0.1167 0.0167  plane waves:     355
 k-point 97 :   0.4167 0.1167 0.0167  plane waves:     356
 k-point 98 :   0.4500 0.1167 0.0167  plane waves:     356
 k-point 99 :   0.4833 0.1167 0.0167  plane waves:     359
 k-point ** :  -0.4833 0.1167 0.0167  plane waves:     358
 k-point ** :  -0.4500 0.1167 0.0167  plane waves:     357
 k-point ** :  -0.4167 0.1167 0.0167  plane waves:     360
 k-point ** :  -0.3833 0.1167 0.0167  plane waves:     359
 k-point ** :  -0.3500 0.1167 0.0167  plane waves:     358
 k-point ** :  -0.3167 0.1167 0.0167  plane waves:     357
 k-point ** :  -0.2833 0.1167 0.0167  plane waves:     353
 k-point ** :  -0.2500 0.1167 0.0167  plane waves:     352
 k-point ** :  -0.2167 0.1167 0.0167  plane waves:     352
 k-point ** :  -0.1833 0.1167 0.0167  plane waves:     354
 k-point ** :  -0.1500 0.1167 0.0167  plane waves:     354
 k-point ** :  -0.1167 0.1167 0.0167  plane waves:     353
 k-point ** :  -0.0833 0.1167 0.0167  plane waves:     350
 k-point ** :  -0.0500 0.1167 0.0167  plane waves:     346
 k-point ** :  -0.0167 0.1167 0.0167  plane waves:     340
 k-point ** :   0.1500 0.1500 0.0167  plane waves:     349
 k-point ** :   0.1833 0.1500 0.0167  plane waves:     351
 k-point ** :   0.2167 0.1500 0.0167  plane waves:     351
 k-point ** :   0.2500 0.1500 0.0167  plane waves:     353
 k-point ** :   0.2833 0.1500 0.0167  plane waves:     352
 k-point ** :   0.3167 0.1500 0.0167  plane waves:     352
 k-point ** :   0.3500 0.1500 0.0167  plane waves:     353
 k-point ** :   0.3833 0.1500 0.0167  plane waves:     355
 k-point ** :   0.4167 0.1500 0.0167  plane waves:     355
 k-point ** :   0.4500 0.1500 0.0167  plane waves:     356
 k-point ** :   0.4833 0.1500 0.0167  plane waves:     358
 k-point ** :  -0.4833 0.1500 0.0167  plane waves:     359
 k-point ** :  -0.4500 0.1500 0.0167  plane waves:     362
 k-point ** :  -0.4167 0.1500 0.0167  plane waves:     360
 k-point ** :  -0.3833 0.1500 0.0167  plane waves:     361
 k-point ** :  -0.3500 0.1500 0.0167  plane waves:     359
 k-point ** :  -0.3167 0.1500 0.0167  plane waves:     356
 k-point ** :  -0.2833 0.1500 0.0167  plane waves:     355
 k-point ** :  -0.2500 0.1500 0.0167  plane waves:     352
 k-point ** :  -0.2167 0.1500 0.0167  plane waves:     356
 k-point ** :  -0.1833 0.1500 0.0167  plane waves:     351
 k-point ** :  -0.1500 0.1500 0.0167  plane waves:     353
 k-point ** :  -0.1167 0.1500 0.0167  plane waves:     355
 k-point ** :  -0.0833 0.1500 0.0167  plane waves:     353
 k-point ** :  -0.0500 0.1500 0.0167  plane waves:     349
 k-point ** :  -0.0167 0.1500 0.0167  plane waves:     345
 k-point ** :   0.1833 0.1833 0.0167  plane waves:     351
 k-point ** :   0.2167 0.1833 0.0167  plane waves:     350
 k-point ** :   0.2500 0.1833 0.0167  plane waves:     350
 k-point ** :   0.2833 0.1833 0.0167  plane waves:     350
 k-point ** :   0.3167 0.1833 0.0167  plane waves:     352
 k-point ** :   0.3500 0.1833 0.0167  plane waves:     351
 k-point ** :   0.3833 0.1833 0.0167  plane waves:     354
 k-point ** :   0.4167 0.1833 0.0167  plane waves:     355
 k-point ** :   0.4500 0.1833 0.0167  plane waves:     356
 k-point ** :   0.4833 0.1833 0.0167  plane waves:     358
 k-point ** :  -0.4833 0.1833 0.0167  plane waves:     358
 k-point ** :  -0.4500 0.1833 0.0167  plane waves:     362
 k-point ** :  -0.4167 0.1833 0.0167  plane waves:     361
 k-point ** :  -0.3833 0.1833 0.0167  plane waves:     361
 k-point ** :  -0.3500 0.1833 0.0167  plane waves:     357
 k-point ** :  -0.3167 0.1833 0.0167  plane waves:     356
 k-point ** :  -0.2833 0.1833 0.0167  plane waves:     356
 k-point ** :  -0.2500 0.1833 0.0167  plane waves:     356
 k-point ** :  -0.2167 0.1833 0.0167  plane waves:     357
[...]
 k-point ** :  -0.4500 0.4833 0.4167  plane waves:     357
 k-point ** :  -0.4167 0.4833 0.4167  plane waves:     359
 k-point ** :  -0.4833-0.4833 0.4167  plane waves:     357
 k-point ** :  -0.4500-0.4833 0.4167  plane waves:     357
 k-point ** :  -0.4500-0.4500 0.4167  plane waves:     361
 k-point ** :   0.4500 0.4500 0.4500  plane waves:     356
 k-point ** :   0.4833 0.4500 0.4500  plane waves:     356
 k-point ** :  -0.4833 0.4500 0.4500  plane waves:     356
 k-point ** :  -0.4500 0.4500 0.4500  plane waves:     355
 k-point ** :   0.4833 0.4833 0.4500  plane waves:     356
 k-point ** :  -0.4833 0.4833 0.4500  plane waves:     356
 k-point ** :  -0.4500 0.4833 0.4500  plane waves:     355
 k-point ** :  -0.4833-0.4833 0.4500  plane waves:     356
 k-point ** :   0.4833 0.4833 0.4833  plane waves:     356
 k-point ** :  -0.4833 0.4833 0.4833  plane waves:     354

 maximum and minimum number of plane-waves per node :       368      335

 maximum number of plane-waves:       368
 maximum index in each direction:
   IXMAX=    5   IYMAX=    5   IZMAX=    4
   IXMIN=   -5   IYMIN=   -5   IZMIN=   -5

 serial   3D FFT for wavefunctions
 parallel 3D FFT for charge:
    minimum data exchange during FFTs selected (reduces bandwidth)

 initial charge density was supplied:
 number of electron       7.9999993 magnetization
 keeping initial charge density in first step

 Maximum index for augmentation-charges         3319 (set IRDMAX)

 First call to EWALD:  gamma=   0.515
 Maximum number of real-space cells 3x 3x 3
 Maximum number of reciprocal cells 3x 3x 3

--------------------------------------- Iteration      1(   1)  ---------------------------------------

 eigenvalue-minimisations  : 40088
 total energy-change (2. order) :-0.1459076E+00  (-0.2188298E+03)
 number of electron       7.9999993 magnetization
 augmentation part        7.9999993 magnetization

 Free energy of the ion-electron system (eV)
  alpha Z        PSCENC =         3.18282462
  Ewald energy   TEWEN  =      -227.14127752
  -Hartree energ DENC   =       -14.62996643
  -exchange      EXHF   =         0.00000000
  -V(xc)+E(xc)   XCENC  =       -18.53355719
  PAW double counting   =        76.07092295      -40.75419350
  entropy T*S    EENTRO =         0.00045590
  eigenvalues    EBANDS =        15.05498453
  atomic energy  EATOM  =       206.60389906
  Solvation  Ediel_sol  =         0.00000000
  free energy    TOTEN  =        -0.14590758 eV

  energy without entropy =       -0.14636347  energy(sigma->0) =       -0.14605954

[...]

--------------------------------------- Iteration      1(   6)  ---------------------------------------

 eigenvalue-minimisations  : 64408
 total energy-change (2. order) :-0.1532271E-08  (-0.1001540E-08)
 number of electron       7.9999993 magnetization
 augmentation part        7.9999993 magnetization

 Free energy of the ion-electron system (eV)
  alpha Z        PSCENC =         3.18282462
  Ewald energy   TEWEN  =      -227.14127752
  -Hartree energ DENC   =       -14.62996643
  -exchange      EXHF   =         0.00000000
  -V(xc)+E(xc)   XCENC  =       -18.53355719
  PAW double counting   =        76.07092295      -40.75419350
  entropy T*S    EENTRO =         0.00041323
  eigenvalues    EBANDS =         4.35342532
  atomic energy  EATOM  =       206.60389906
  Solvation  Ediel_sol  =         0.00000000
  free energy    TOTEN  =       -10.84750946 eV

  energy without entropy =      -10.84792269  energy(sigma->0) =      -10.84764720

 average (electrostatic) potential at core
  the test charge radii are     0.9892
  (the norm of the test charge is              1.0000)
       1 -83.9563       2 -83.9563

 E-fermi :   5.5717     XC(G=0):  -9.3948     alpha+bet :-11.7766

 k-point     1 :       0.0167    0.0167    0.0167
  band No.  band energies     occupation
      1      -6.2681      2.00000
      2       5.4889      1.63833
      3       5.5266      1.37054
      4       5.5266      1.37054
      5       8.1594     -0.00000
      6       8.1594     -0.00000
      7       8.1614     -0.00000
      8       8.6907     -0.00000

[...]

 k-point  2480 :      -0.4833    0.4833    0.4833
  band No.  band energies     occupation
      1      -3.9894      2.00000
      2      -1.3067      2.00000
      3       4.2384      2.00000
      4       4.3405      2.00000
      5       7.1488     -0.00000
      6       8.9473     -0.00000
      7       9.0100     -0.00000
      8      13.3828      0.00000

 soft charge-density along one line, spin component           1
         0         1         2         3         4         5         6         7         8         9
 total charge-density along one line

------------------------ aborting loop because EDIFF is reached ----------------------------------------

 total charge

# of ion       s       p       d       tot
    1        0.758   0.949   0.000   1.707
    2        0.758   0.949   0.000   1.707
tot          1.516   1.897   0.000   3.413

  FORCE on cell =-STRESS in cart. coord.  units (eV):
  Direction    XX          YY          ZZ          XY          YZ          ZX
  Alpha Z     3.18282     3.18282     3.18282
  Ewald     -75.71379   -75.71379   -75.71379     0.00000     0.00000    -0.00000
  Hartree     5.15126     5.15126     5.15126    -0.00000    -0.00000    -0.00000
  E(xc)     -25.28417   -25.28417   -25.28417     0.00001     0.00001     0.00001
  Local     -30.17551   -30.17551   -30.17551     0.00005     0.00005     0.00005
  n-local    78.83545    81.22499    75.99663     1.02393    -1.02589     0.00170
  augment   -11.92900   -11.92900   -11.92900    -0.00005    -0.00005    -0.00005
  Kinetic    58.29648    56.18917    55.41626     0.92361    -0.92563     0.00187
  Fock        0.00000     0.00000     0.00000     0.00000     0.00000     0.00000
  Total       0.55129     0.55129     0.55129     0.00000     0.00000     0.00000
  in kB      21.65784    21.65784    21.65784     0.00000     0.00000     0.00000

 VOLUME and BASIS-vectors are now :
  energy-cutoff  :      245.44
  volume of cell :       40.78
      direct lattice vectors                 reciprocal lattice vectors
     0.000000000  2.732000000  2.732000000    -0.183016105  0.183016105  0.183016105
     2.732000000  0.000000000  2.732000000     0.183016105 -0.183016105  0.183016105
     2.732000000  2.732000000  0.000000000     0.183016105  0.183016105 -0.183016105

  length of vectors
     3.863631452  3.863631452  3.863631452     0.316993193  0.316993193  0.316993193

 FORCES acting on ions
    electron-ion (+dipol)            ewald-force                    non-local-force                 convergence-correction
   0.112E-05 0.112E-05 0.112E-05   0.346E-14 0.392E-14 0.369E-14   0.694E-17 0.694E-17 0.718E-18   -.139E-07 -.139E-07 -.139E-07
   -.112E-05 -.112E-05 -.112E-05   -.339E-14 -.399E-14 -.439E-14   -.694E-17 -.694E-17 -.374E-17   0.139E-07 0.139E-07 0.139E-07
   0.902E-14 -.322E-14 0.862E-15   0.708E-16 -.650E-16 -.707E-15   0.000E+00 0.000E+00 -.302E-17   0.103E-14 -.104E-14 -.688E-15

 POSITION                                       TOTAL-FORCE (eV/Angst)
      0.00000      0.00000      0.00000        -0.000000     -0.000000     -0.000000
      1.36600      1.36600      1.36600         0.000000      0.000000      0.000000
    total drift:                                0.000000     -0.000000     -0.000000

  FREE ENERGIE OF THE ION-ELECTRON SYSTEM (eV)
  free  energy   TOTEN  =       -10.84750946 eV

  energy  without entropy=      -10.84792269  energy(sigma->0) =      -10.84764720

 total charge

# of ion       s       p       d       tot
    1        0.758   0.949   0.000   1.707
    2        0.758   0.949   0.000   1.707
tot          1.516   1.897   0.000   3.413