 vasp.5.4.4.18Apr17-6-g9f103f2a35 (build May 20 2018 16:52:39) complex

 executed on             LinuxIFC date 2022.11.04  20:11:55

 INCAR:
 POTCAR:   PAW_PBE C 08Apr2002
 POTCAR:   PAW_PBE C 08Apr2002
   VRHFIN =C: s2p2

   TITEL  = PAW_PBE C 08Apr2002
   POMASS =   12.011; ZVAL   =    4.000    mass and valenz
   ENMAX  =  400.000; ENMIN  =  300.000 eV
   QCUT   =   -5.516; QGAM   =   11.032    optimization parameters

   Description
     l     E      TYP  RCUT    TYP  RCUT
     0   .000     23  1.200
     0   .000     23  1.200
     1   .000     23  1.500
     1  2.500     23  1.500
     2   .000      7  1.500

 PAW_PBE C 08Apr2002                    :

 POSCAR: bilayer graphene (AB stacking, 3.46A int
  positions in direct lattice
 exchange correlation table for  LEXCH =        8
   RHO(1)=    0.500       N(1)  =     2000
   RHO(2)=  100.500       N(2)  =     4000

 ion  position               nearest neighbor table
   1  0.000  0.000  0.000-   2 1.42   2 1.42   2 1.42
   2  0.667  0.667  0.000-   1 1.42   1 1.42   1 1.42
   3  0.000  0.000  0.070-   4 1.42   4 1.42   4 1.42
   4  0.333  0.333  0.070-   3 1.42   3 1.42   3 1.42

  LATTYP: Found a base centered orthorhombic cell.
 ALAT       =     2.4600000000
 B/A-ratio  =     1.7320000000
 C/A-ratio  =    20.0000000000

  Lattice vectors:

 A1 = (   2.1303600000,  -1.2300000000,   0.0000000000)
 A2 = (  -2.1303600000,  -1.2300000000,   0.0000000000)
 A3 = (   0.0000000000,   0.0000000000, -49.2000000000)

Analysis of symmetry for initial positions (statically):
 Subroutine PRICEL returns:
 Original cell was already a primitive cell.

 Routine SETGRP: Setting up the symmetry group for a
 base centered orthorhombic supercell.

 Subroutine GETGRP returns: Found  4 space group operations
 (whereof  2 operations were pure point group operations)
 out of a pool of  8 trial point group operations.

The static configuration has the point symmetry C_1h.
 The point group associated with its full space group is C_2h.

Analysis of symmetry for dynamics (positions and initial velocities):
 Subroutine PRICEL returns:
 Original cell was already a primitive cell.

 Routine SETGRP: Setting up the symmetry group for a
 base centered orthorhombic supercell.

 Subroutine GETGRP returns: Found  4 space group operations
 (whereof  2 operations were pure point group operations)
 out of a pool of  8 trial point group operations.

The dynamic configuration has the point symmetry C_1h.
 The point group associated with its full space group is C_2h.

 Subroutine INISYM returns: Found  4 space group operations
 (whereof  2 operations are pure point group operations),
 and found     1 'primitive' translations

 KPOINTS: 20*20*5

Automatic generation of k-mesh.
Space group operators:
 irot       det(A)        alpha          n_x          n_y          n_z        tau_x        tau_y        tau_z
    1     1.000000     0.000000     1.000000     0.000000     0.000000     0.000000     0.000000     0.000000
    2    -1.000000   180.000000     0.000000     1.000000     0.000000     0.000000     0.000000     0.000000
    3    -1.000000     0.000000     1.000000     0.000000     0.000000     0.000000     0.000000    -0.929675
    4     1.000000   180.000000     0.000000     1.000000     0.000000     0.000000     0.000000    -0.929675

 Subroutine IBZKPT returns following result:

 Found    531 irreducible k-points:

 Following reciprocal coordinates:
            Coordinates               Weight
  0.000000  0.000000  0.000000      1.000000
  0.050000  0.000000  0.000000      4.000000
  0.100000  0.000000  0.000000      4.000000
  0.150000  0.000000  0.000000      4.000000
  0.200000  0.000000  0.000000      4.000000
  0.250000  0.000000  0.000000      4.000000
  0.300000  0.000000  0.000000      4.000000
  0.350000  0.000000  0.000000      4.000000
  0.400000  0.000000  0.000000      4.000000
  0.450000 -0.000000  0.000000      4.000000
  0.500000  0.000000  0.000000      2.000000
  0.050000  0.050000  0.000000      2.000000
  0.100000  0.050000  0.000000      4.000000
  0.150000  0.050000  0.000000      4.000000
  0.200000  0.050000  0.000000      4.000000
  0.250000  0.050000  0.000000      4.000000
  0.300000  0.050000  0.000000      4.000000
  0.350000  0.050000  0.000000      4.000000
  0.400000  0.050000  0.000000      4.000000
  0.450000  0.050000  0.000000      4.000000
  0.500000  0.050000  0.000000      4.000000
 -0.450000  0.050000  0.000000      4.000000
 -0.400000  0.050000  0.000000      4.000000
 -0.350000  0.050000  0.000000      4.000000
 -0.300000  0.050000  0.000000      4.000000
 -0.250000  0.050000  0.000000      4.000000
 -0.200000  0.050000  0.000000      4.000000
 -0.150000  0.050000  0.000000      4.000000
 -0.100000  0.050000  0.000000      4.000000
 -0.050000  0.050000  0.000000      2.000000
  0.100000  0.100000  0.000000      2.000000
  0.150000  0.100000  0.000000      4.000000
  0.200000  0.100000  0.000000      4.000000
  0.250000  0.100000  0.000000      4.000000
  0.300000  0.100000  0.000000      4.000000
  0.350000  0.100000  0.000000      4.000000
  0.400000  0.100000  0.000000      4.000000
  0.450000  0.100000  0.000000      4.000000
  0.500000  0.100000  0.000000      4.000000
 -0.450000  0.100000  0.000000      4.000000
 -0.400000  0.100000  0.000000      4.000000
 -0.350000  0.100000  0.000000      4.000000
 -0.300000  0.100000  0.000000      4.000000
 -0.250000  0.100000  0.000000      4.000000
 -0.200000  0.100000  0.000000      4.000000
 -0.150000  0.100000  0.000000      4.000000
 -0.100000  0.100000  0.000000      2.000000
  0.150000  0.150000  0.000000      2.000000
  0.200000  0.150000  0.000000      4.000000
  0.250000  0.150000  0.000000      4.000000
  0.300000  0.150000  0.000000      4.000000
  0.350000  0.150000  0.000000      4.000000
  0.400000  0.150000  0.000000      4.000000
  0.450000  0.150000  0.000000      4.000000
  0.500000  0.150000  0.000000      4.000000
 -0.450000  0.150000  0.000000      4.000000
 -0.400000  0.150000  0.000000      4.000000
 -0.350000  0.150000  0.000000      4.000000
 -0.300000  0.150000  0.000000      4.000000
 -0.250000  0.150000  0.000000      4.000000
[...]
 -0.250000 -0.250000  0.400000      2.000000
 -0.200000 -0.250000  0.400000      4.000000
 -0.150000 -0.250000  0.400000      4.000000
 -0.100000 -0.250000  0.400000      4.000000
 -0.050000 -0.250000  0.400000      4.000000
 -0.200000 -0.200000  0.400000      2.000000
 -0.150000 -0.200000  0.400000      4.000000
 -0.100000 -0.200000  0.400000      4.000000
 -0.050000 -0.200000  0.400000      4.000000
 -0.150000 -0.150000  0.400000      2.000000
 -0.100000 -0.150000  0.400000      4.000000
 -0.050000 -0.150000  0.400000      4.000000
 -0.100000 -0.100000  0.400000      2.000000
 -0.050000 -0.100000  0.400000      4.000000
 -0.050000 -0.050000  0.400000      2.000000

 Following cartesian coordinates:
            Coordinates               Weight
  0.000000  0.000000  0.000000      1.000000
  0.028868 -0.050000  0.000000      4.000000
  0.057737 -0.100000  0.000000      4.000000
  0.086605 -0.150000  0.000000      4.000000
  0.115473 -0.200000  0.000000      4.000000
  0.144342 -0.250000  0.000000      4.000000
  0.173210 -0.300000  0.000000      4.000000
  0.202079 -0.350000  0.000000      4.000000
  0.230947 -0.400000  0.000000      4.000000
  0.259815 -0.450000  0.000000      4.000000
  0.288684 -0.500000  0.000000      2.000000
  0.057737  0.000000  0.000000      2.000000
  0.086605 -0.050000  0.000000      4.000000
  0.115473 -0.100000  0.000000      4.000000
  0.144342 -0.150000  0.000000      4.000000
  0.173210 -0.200000  0.000000      4.000000
  0.202079 -0.250000  0.000000      4.000000
  0.230947 -0.300000  0.000000      4.000000
  0.259815 -0.350000  0.000000      4.000000
  0.288684 -0.400000  0.000000      4.000000
  0.317552 -0.450000  0.000000      4.000000
 -0.230947  0.500000  0.000000      4.000000
 -0.202079  0.450000  0.000000      4.000000
 -0.173210  0.400000  0.000000      4.000000
 -0.144342  0.350000  0.000000      4.000000
 -0.115473  0.300000  0.000000      4.000000
 -0.086605  0.250000  0.000000      4.000000
 -0.057737  0.200000  0.000000      4.000000
 -0.028868  0.150000  0.000000      4.000000
  0.000000  0.100000  0.000000      2.000000
  0.115473  0.000000  0.000000      2.000000
  0.144342 -0.050000  0.000000      4.000000
  0.173210 -0.100000  0.000000      4.000000
  0.202079 -0.150000  0.000000      4.000000
  0.230947 -0.200000  0.000000      4.000000
  0.259815 -0.250000  0.000000      4.000000
  0.288684 -0.300000  0.000000      4.000000
  0.317552 -0.350000  0.000000      4.000000
  0.346420 -0.400000  0.000000      4.000000
 -0.202079  0.550000  0.000000      4.000000
 -0.173210  0.500000  0.000000      4.000000
 -0.144342  0.450000  0.000000      4.000000
 -0.115473  0.400000  0.000000      4.000000
 -0.086605  0.350000  0.000000      4.000000
 -0.057737  0.300000  0.000000      4.000000
 -0.028868  0.250000  0.000000      4.000000
  0.000000  0.200000  0.000000      2.000000
  0.173210  0.000000  0.000000      2.000000
  0.202079 -0.050000  0.000000      4.000000
  0.230947 -0.100000  0.000000      4.000000
  0.259815 -0.150000  0.000000      4.000000
  0.288684 -0.200000  0.000000      4.000000
  0.317552 -0.250000  0.000000      4.000000
  0.346420 -0.300000  0.000000      4.000000
  0.375289 -0.350000  0.000000      4.000000
 -0.173210  0.600000  0.000000      4.000000
 -0.144342  0.550000  0.000000      4.000000
 -0.115473  0.500000  0.000000      4.000000
 -0.086605  0.450000  0.000000      4.000000
 -0.057737  0.400000  0.000000      4.000000
[...]
 -0.288684  0.000000  0.020000      2.000000
 -0.259815 -0.050000  0.020000      4.000000
 -0.230947 -0.100000  0.020000      4.000000
 -0.202079 -0.150000  0.020000      4.000000
 -0.173210 -0.200000  0.020000      4.000000
 -0.230947  0.000000  0.020000      2.000000
 -0.202079 -0.050000  0.020000      4.000000
 -0.173210 -0.100000  0.020000      4.000000
 -0.144342 -0.150000  0.020000      4.000000
 -0.173210  0.000000  0.020000      2.000000
 -0.144342 -0.050000  0.020000      4.000000
 -0.115473 -0.100000  0.020000      4.000000
 -0.115473  0.000000  0.020000      2.000000
 -0.086605 -0.050000  0.020000      4.000000
 -0.057737  0.000000  0.020000      2.000000

 TETIRR: Found   3010 inequivalent tetrahedra from    12000

 SYSTEM =  graphene (bilayer layer)
 POSCAR =  bilayer graphene (AB stacking, 3.46A int

 Startparameter for this run:
   NWRITE =      2    write-flag & timer
   PREC   = normal    normal or accurate (medium, high low for compatibility)
   ISTART =      1    job   : 0-new  1-cont  2-samecut
   ICHARG =      0    charge: 1-file 2-atom 10-const
   ISPIN  =      1    spin polarized calculation?
   LNONCOLLINEAR =      F non collinear calculations
   LSORBIT =      F    spin-orbit coupling
   INIWAV =      1    electr: 0-lowe 1-rand  2-diag
   LASPH  =      F    aspherical Exc in radial PAW
   METAGGA=      F    non-selfconsistent MetaGGA calc.

 Electronic Relaxation 1
   ENCUT  =  600.0 eV  44.10 Ry    6.64 a.u.   4.91  4.91 98.26*2*pi/ulx,y,z
   ENINI  =  600.0     initial cutoff
[...]
 k-point 15 :   0.2000 0.0500 0.0000  plane waves:    8557
 k-point 16 :   0.2500 0.0500 0.0000  plane waves:    8577
 k-point 17 :   0.3000 0.0500 0.0000  plane waves:    8568
 k-point 18 :   0.3500 0.0500 0.0000  plane waves:    8560
 k-point 19 :   0.4000 0.0500 0.0000  plane waves:    8606
 k-point 20 :   0.4500 0.0500 0.0000  plane waves:    8611
 k-point 21 :   0.5000 0.0500 0.0000  plane waves:    8622
 k-point 22 :  -0.4500 0.0500 0.0000  plane waves:    8622
 k-point 23 :  -0.4000 0.0500 0.0000  plane waves:    8611
 k-point 24 :  -0.3500 0.0500 0.0000  plane waves:    8606
 k-point 25 :  -0.3000 0.0500 0.0000  plane waves:    8560
 k-point 26 :  -0.2500 0.0500 0.0000  plane waves:    8568
 k-point 27 :  -0.2000 0.0500 0.0000  plane waves:    8577
 k-point 28 :  -0.1500 0.0500 0.0000  plane waves:    8557
 k-point 29 :  -0.1000 0.0500 0.0000  plane waves:    8509
 k-point 30 :  -0.0500 0.0500 0.0000  plane waves:    8467
 k-point 31 :   0.1000 0.1000 0.0000  plane waves:    8479
 k-point 32 :   0.1500 0.1000 0.0000  plane waves:    8509
 k-point 33 :   0.2000 0.1000 0.0000  plane waves:    8507
 k-point 34 :   0.2500 0.1000 0.0000  plane waves:    8538
 k-point 35 :   0.3000 0.1000 0.0000  plane waves:    8566
 k-point 36 :   0.3500 0.1000 0.0000  plane waves:    8563
 k-point 37 :   0.4000 0.1000 0.0000  plane waves:    8577
 k-point 38 :   0.4500 0.1000 0.0000  plane waves:    8624
 k-point 39 :   0.5000 0.1000 0.0000  plane waves:    8661
 k-point 40 :  -0.4500 0.1000 0.0000  plane waves:    8641
 k-point 41 :  -0.4000 0.1000 0.0000  plane waves:    8661
 k-point 42 :  -0.3500 0.1000 0.0000  plane waves:    8624
 k-point 43 :  -0.3000 0.1000 0.0000  plane waves:    8577
 k-point 44 :  -0.2500 0.1000 0.0000  plane waves:    8563
 k-point 45 :  -0.2000 0.1000 0.0000  plane waves:    8566
 k-point 46 :  -0.1500 0.1000 0.0000  plane waves:    8538
 k-point 47 :  -0.1000 0.1000 0.0000  plane waves:    8507
 k-point 48 :   0.1500 0.1500 0.0000  plane waves:    8541
 k-point 49 :   0.2000 0.1500 0.0000  plane waves:    8557
 k-point 50 :   0.2500 0.1500 0.0000  plane waves:    8538
 k-point 51 :   0.3000 0.1500 0.0000  plane waves:    8563
 k-point 52 :   0.3500 0.1500 0.0000  plane waves:    8549
 k-point 53 :   0.4000 0.1500 0.0000  plane waves:    8577
 k-point 54 :   0.4500 0.1500 0.0000  plane waves:    8621
 k-point 55 :   0.5000 0.1500 0.0000  plane waves:    8669
 k-point 56 :  -0.4500 0.1500 0.0000  plane waves:    8681
 k-point 57 :  -0.4000 0.1500 0.0000  plane waves:    8681
 k-point 58 :  -0.3500 0.1500 0.0000  plane waves:    8669
 k-point 59 :  -0.3000 0.1500 0.0000  plane waves:    8621
 k-point 60 :  -0.2500 0.1500 0.0000  plane waves:    8577
[...]
 k-point 85 :  -0.3000 0.2500 0.0000  plane waves:    8709
 k-point 86 :  -0.2500 0.2500 0.0000  plane waves:    8637
 k-point 87 :   0.3000 0.3000 0.0000  plane waves:    8568
 k-point 88 :   0.3500 0.3000 0.0000  plane waves:    8560
 k-point 89 :   0.4000 0.3000 0.0000  plane waves:    8577
 k-point 90 :   0.4500 0.3000 0.0000  plane waves:    8621
 k-point 91 :   0.5000 0.3000 0.0000  plane waves:    8662
 k-point 92 :  -0.4500 0.3000 0.0000  plane waves:    8709
 k-point 93 :  -0.4000 0.3000 0.0000  plane waves:    8745
 k-point 94 :  -0.3500 0.3000 0.0000  plane waves:    8751
 k-point 95 :  -0.3000 0.3000 0.0000  plane waves:    8745
 k-point 96 :   0.3500 0.3500 0.0000  plane waves:    8606
 k-point 97 :   0.4000 0.3500 0.0000  plane waves:    8606
 k-point 98 :   0.4500 0.3500 0.0000  plane waves:    8624
 k-point 99 :   0.5000 0.3500 0.0000  plane waves:    8669
 k-point ** :  -0.4500 0.3500 0.0000  plane waves:    8685
 k-point ** :  -0.4000 0.3500 0.0000  plane waves:    8729
 k-point ** :  -0.3500 0.3500 0.0000  plane waves:    8751
 k-point ** :   0.4000 0.4000 0.0000  plane waves:    8622
 k-point ** :   0.4500 0.4000 0.0000  plane waves:    8611
 k-point ** :   0.5000 0.4000 0.0000  plane waves:    8661
 k-point ** :  -0.4500 0.4000 0.0000  plane waves:    8681
 k-point ** :  -0.4000 0.4000 0.0000  plane waves:    8689
 k-point ** :   0.4500 0.4500 0.0000  plane waves:    8618
 k-point ** :   0.5000 0.4500 0.0000  plane waves:    8622
 k-point ** :  -0.4500 0.4500 0.0000  plane waves:    8641
 k-point ** :   0.5000 0.5000 0.0000  plane waves:    8588
 k-point ** :   0.0000 0.0000 0.2000  plane waves:    8471
 k-point ** :   0.0500 0.0000 0.2000  plane waves:    8480
 k-point ** :   0.1000 0.0000 0.2000  plane waves:    8469
 k-point ** :   0.1500 0.0000 0.2000  plane waves:    8540
 k-point ** :   0.2000 0.0000 0.2000  plane waves:    8575
 k-point ** :   0.2500 0.0000 0.2000  plane waves:    8572
 k-point ** :   0.3000 0.0000 0.2000  plane waves:    8567
 k-point ** :   0.3500 0.0000 0.2000  plane waves:    8599
 k-point ** :   0.4000 0.0000 0.2000  plane waves:    8620
 k-point ** :   0.4500-0.0000 0.2000  plane waves:    8614
 k-point ** :   0.5000 0.0000 0.2000  plane waves:    8596
 k-point ** :  -0.4500 0.0000 0.2000  plane waves:    8614
 k-point ** :  -0.4000-0.0000 0.2000  plane waves:    8620
 k-point ** :  -0.3500 0.0000 0.2000  plane waves:    8599
 k-point ** :  -0.3000 0.0000 0.2000  plane waves:    8567
 k-point ** :  -0.2500 0.0000 0.2000  plane waves:    8572
 k-point ** :  -0.2000-0.0000 0.2000  plane waves:    8575
 k-point ** :  -0.1500 0.0000 0.2000  plane waves:    8540
 k-point ** :  -0.1000 0.0000 0.2000  plane waves:    8469
 k-point ** :  -0.0500 0.0000 0.2000  plane waves:    8480
 k-point ** :   0.0500 0.0500 0.2000  plane waves:    8480
 k-point ** :   0.1000 0.0500 0.2000  plane waves:    8475
 k-point ** :   0.1500 0.0500 0.2000  plane waves:    8505
 k-point ** :   0.2000 0.0500 0.2000  plane waves:    8554
 k-point ** :   0.2500 0.0500 0.2000  plane waves:    8570
 k-point ** :   0.3000 0.0500 0.2000  plane waves:    8565
 k-point ** :   0.3500 0.0500 0.2000  plane waves:    8570
 k-point ** :   0.4000 0.0500 0.2000  plane waves:    8610
 k-point ** :   0.4500 0.0500 0.2000  plane waves:    8610
 k-point ** :   0.5000 0.0500 0.2000  plane waves:    8618
 k-point ** :  -0.4500 0.0500 0.2000  plane waves:    8619
 k-point ** :  -0.4000 0.0500 0.2000  plane waves:    8610
 k-point ** :  -0.3500 0.0500 0.2000  plane waves:    8610
 k-point ** :  -0.3000 0.0500 0.2000  plane waves:    8570
 k-point ** :  -0.2500 0.0500 0.2000  plane waves:    8565
 k-point ** :  -0.2000 0.0500 0.2000  plane waves:    8570
 k-point ** :  -0.1500 0.0500 0.2000  plane waves:    8553
 k-point ** :  -0.1000 0.0500 0.2000  plane waves:    8506
 k-point ** :  -0.0500 0.0500 0.2000  plane waves:    8475
 k-point ** :   0.1000 0.1000 0.2000  plane waves:    8469
 k-point ** :   0.1500 0.1000 0.2000  plane waves:    8506
 k-point ** :   0.2000 0.1000 0.2000  plane waves:    8514
 k-point ** :   0.2500 0.1000 0.2000  plane waves:    8549
 k-point ** :   0.3000 0.1000 0.2000  plane waves:    8562
 k-point ** :   0.3500 0.1000 0.2000  plane waves:    8564
 k-point ** :   0.4000 0.1000 0.2000  plane waves:    8578
 k-point ** :   0.4500 0.1000 0.2000  plane waves:    8618
 k-point ** :   0.5000 0.1000 0.2000  plane waves:    8654
[...]
 k-point ** :  -0.2500-0.2500 0.4000  plane waves:    8568
 k-point ** :  -0.2000-0.2500 0.4000  plane waves:    8569
 k-point ** :  -0.1500-0.2500 0.4000  plane waves:    8550
 k-point ** :  -0.1000-0.2500 0.4000  plane waves:    8550
 k-point ** :  -0.0500-0.2500 0.4000  plane waves:    8568
 k-point ** :  -0.2000-0.2000 0.4000  plane waves:    8573
 k-point ** :  -0.1500-0.2000 0.4000  plane waves:    8549
 k-point ** :  -0.1000-0.2000 0.4000  plane waves:    8523
 k-point ** :  -0.0500-0.2000 0.4000  plane waves:    8549
 k-point ** :  -0.1500-0.1500 0.4000  plane waves:    8533
 k-point ** :  -0.1000-0.1500 0.4000  plane waves:    8501
 k-point ** :  -0.0500-0.1500 0.4000  plane waves:    8501
 k-point ** :  -0.1000-0.1000 0.4000  plane waves:    8471
 k-point ** :  -0.0500-0.1000 0.4000  plane waves:    8476
 k-point ** :  -0.0500-0.0500 0.4000  plane waves:    8482

 maximum and minimum number of plane-waves per node :      8752     8467

 maximum number of plane-waves:      8752
 maximum index in each direction:
   IXMAX=    5   IYMAX=    5   IZMAX=   98
   IXMIN=   -5   IYMIN=   -5   IZMIN=  -98

 serial   3D FFT for wavefunctions
 parallel 3D FFT for charge:
    minimum data exchange during FFTs selected (reduces bandwidth)

 Broyden mixing: mesh for mixing (old mesh)
   NGX =  9   NGY =  9   NGZ =197
  (NGX  = 32   NGY  = 32   NGZ  =600)
  gives a total of  15957 points

 charge density for first step will be calculated from the start-wavefunctions

 Maximum index for augmentation-charges         3420 (set IRDMAX)

 initial charge from wavefunction
 First call to EWALD:  gamma=   0.278
 Maximum number of real-space cells 7x 7x 1
 Maximum number of reciprocal cells 1x 1x18

--------------------------------------- Iteration      1(   1)  ---------------------------------------

 BZINTS: Fermi energy: -2.535194; 16.000000 electrons
         Band energy:-185.377070;  BLOECHL correction:  0.000000

 eigenvalue-minimisations  : 15480
 total energy-change (2. order) :-0.3325507E+02  (-0.1211753E+03)
 number of electron      16.0000000 magnetization
 augmentation part        0.3821319 magnetization

 Broyden mixing:
  rms(total) = 0.34017E+00    rms(broyden)= 0.33994E+00
  rms(prec ) = 0.34277E+00
  weight for this iteration     100.00

 Free energy of the ion-electron system (eV)
  alpha Z        PSCENC =         5.05613508
  Ewald energy   TEWEN  =     13488.27800016
  -Hartree energ DENC   =    -13982.59666351
  -exchange      EXHF   =         0.00000000
  -V(xc)+E(xc)   XCENC  =        57.83871467
  PAW double counting   =       250.78361263     -255.83895256
  entropy T*S    EENTRO =         0.00000000
  eigenvalues    EBANDS =      -185.37706986
  atomic energy  EATOM  =       588.60115103
  Solvation  Ediel_sol  =         0.00000000
  free energy    TOTEN  =       -33.25507235 eV

  energy without entropy =      -33.25507235  energy(sigma->0) =      -33.25507235

[...]

 eigenvalues of (default mixing * dielectric matrix)
  average eigenvalue GAMMA=   1.0256
  1.0256

[...]

 eigenvalue-minimisations  : 15976
 total energy-change (2. order) : 0.1769020E-01  (-0.9964465E-02)
 number of electron      16.0000000 magnetization
 augmentation part        0.3856324 magnetization

[...]

 eigenvalue-minimisations  : 15968
 total energy-change (2. order) : 0.2557424E-03  (-0.1340924E-03)
 number of electron      16.0000000 magnetization
 augmentation part        0.3855687 magnetization

[...]

 Broyden mixing:
  rms(total) = 0.21330E-04    rms(broyden)= 0.21316E-04
  rms(prec ) = 0.23021E-04
  weight for this iteration     100.00

 eigenvalues of (default mixing * dielectric matrix)
  average eigenvalue GAMMA=   2.2576
  7.7131  4.8273  2.8940  2.4983  2.0132  1.6254  1.6254  1.1590  1.1590  0.9995
  0.9995  0.9750  0.8607

[...]

--------------------------------------- Iteration      1(  15)  ---------------------------------------

 BZINTS: Fermi energy: -3.296547; 16.000000 electrons
         Band energy:-194.895259;  BLOECHL correction:  0.000000

 eigenvalue-minimisations  : 10272
 total energy-change (2. order) :-0.9217263E-06  (-0.1871514E-08)
 number of electron      16.0000000 magnetization
 augmentation part        0.3856474 magnetization

 Free energy of the ion-electron system (eV)
  alpha Z        PSCENC =         5.05613508
  Ewald energy   TEWEN  =     13488.27800016
  -Hartree energ DENC   =    -13976.40545173
  -exchange      EXHF   =         0.00000000
  -V(xc)+E(xc)   XCENC  =        57.66549248
  PAW double counting   =       279.69923221     -284.87345659
  entropy T*S    EENTRO =         0.00000000
  eigenvalues    EBANDS =      -194.89525935
  atomic energy  EATOM  =       588.60115103
  Solvation  Ediel_sol  =         0.00000000
  free energy    TOTEN  =       -36.87415670 eV

  energy without entropy =      -36.87415670  energy(sigma->0) =      -36.87415670

 average (electrostatic) potential at core
  the test charge radii are     0.6991
  (the norm of the test charge is              1.0000)
       1 -58.4379       2 -58.4256       3 -58.4379       4 -58.4256

 E-fermi :  -3.2965     XC(G=0):  -1.6365     alpha+bet : -1.5574

 k-point     1 :       0.0000    0.0000    0.0000
  band No.  band energies     occupation
      1     -22.6485      2.00000
      2     -22.5310      2.00000
      3     -11.0907      2.00000
      4     -10.2618      2.00000
      5      -6.0454      2.00000
      6      -6.0413      2.00000
      7      -6.0389      2.00000
      8      -6.0347      2.00000
      9       0.3649      0.00000
     10       0.7308      0.00000
     11       1.1725      0.00000
     12       1.2531      0.00000

[...]

 k-point   531 :      -0.0500   -0.0500    0.4000
  band No.  band energies     occupation
      1     -22.5889      2.00000
      2     -22.4718      2.00000
      3     -11.0188      2.00000
      4     -10.1919      2.00000
      5      -6.2896      2.00000
      6      -6.2808      2.00000
      7      -6.1706      2.00000
      8      -6.1625      2.00000
      9       0.4447      0.00000
     10       0.8118      0.00000
     11       1.2591      0.00000
     12       1.3234      0.00000

 soft charge-density along one line, spin component           1
         0         1         2         3         4         5         6         7         8         9
 total charge-density along one line

------------------------ aborting loop because EDIFF is reached ----------------------------------------

  FORCE on cell =-STRESS in cart. coord.  units (eV):
  Direction    XX          YY          ZZ          XY          YZ          ZX
  Alpha Z     5.05614     5.05614     5.05614
  Ewald   14027.46727 14027.33414-14566.52467     0.00000     0.00000     0.00010
  Hartree 13953.91133 13953.89275-13931.40529    -0.00000    -0.00000     0.00007
  E(xc)     -58.47816   -58.47861   -60.74487     0.00000    -0.00000     0.00000
  Local  -28152.28224-28152.15690 28292.73657     0.00000    -0.00000    -0.00017
  n-local   -14.20243   -14.20258   -12.88475     0.11002     0.00144     0.00000
  augment    -1.56184    -1.56155    -1.42721     0.00000     0.00000    -0.00000
  Kinetic   240.86916   240.88255   275.39249    -0.74546    -0.01877    -0.00001
  Fock        0.00000     0.00000     0.00000     0.00000     0.00000     0.00000
  Total       0.77923     0.76593     0.19840     0.00000     0.00000    -0.00001
  in kB       4.84198     4.75936     1.23283     0.00000     0.00000    -0.00005

 VOLUME and BASIS-vectors are now :
  energy-cutoff  :      600.00
  volume of cell :      257.84
      direct lattice vectors                 reciprocal lattice vectors
     2.130360000 -1.230000000  0.000000000     0.234702116 -0.406504065  0.000000000
     2.130360000  1.230000000  0.000000000     0.234702116  0.406504065  0.000000000
     0.000000000  0.000000000 49.200000000     0.000000000  0.000000000  0.020325203

  length of vectors
     2.459945879  2.459945879 49.200000000     0.469393905  0.469393905  0.020325203

 FORCES acting on ions
    electron-ion (+dipol)            ewald-force                    non-local-force                 convergence-correction
   -.265E-01 0.160E-15 0.475E+03   0.319E-01 -.433E-14 -.475E+03   0.284E-02 0.000E+00 -.171E-01   -.413E-04 0.414E-15 0.841E-04
   0.265E-01 -.103E-13 0.475E+03   -.319E-01 0.126E-13 -.475E+03   -.284E-02 0.139E-16 -.260E-01   0.418E-04 -.134E-14 0.824E-04
   0.265E-01 -.546E-14 -.475E+03   -.319E-01 0.575E-14 0.475E+03   -.284E-02 0.000E+00 0.171E-01   0.413E-04 -.102E-14 -.841E-04
   -.265E-01 0.526E-14 -.475E+03   0.319E-01 0.216E-14 0.475E+03   0.284E-02 -.139E-16 0.260E-01   -.418E-04 0.993E-15 -.824E-04
   0.338E-07 -.104E-13 -.289E-04   -.307E-13 0.162E-13 0.000E+00   0.000E+00 0.000E+00 0.347E-17   -.226E-09 -.955E-15 0.464E-08

 POSITION                                       TOTAL-FORCE (eV/Angst)
      0.00000      0.00000      0.00000         0.008236      0.000000     -0.035360
      2.84062      0.00000      0.00000        -0.008226      0.000000     -0.044547
      0.00000      0.00000      3.46000        -0.008236      0.000000      0.035360
      1.42010      0.00000      3.46000         0.008226      0.000000      0.044547
    total drift:                                0.000000      0.000000     -0.000029

  FREE ENERGIE OF THE ION-ELECTRON SYSTEM (eV)
  free  energy   TOTEN  =       -36.87415670 eV

  energy  without entropy=      -36.87415670  energy(sigma->0) =      -36.87415670

 writing wavefunctions
 BZINTS: Fermi energy: -3.296547; 16.000000 electrons
         Band energy:-194.895259;  BLOECHL correction:  0.000000