 vasp.5.4.4.18Apr17-6-g9f103f2a35 (build May 20 2018 16:52:39) complex

 executed on             LinuxIFC date 2022.10.30  23:07:48

 INCAR:
 POTCAR:    PAW Fe
 POTCAR:    PAW Fe
   VRHFIN =Fe:  d7 s1

   TITEL  = PAW Fe
   POMASS =   55.847; ZVAL   =    8.000    mass and valenz
   ENMAX  =  267.969; ENMIN  =  200.977 eV
   QCUT   =   -4.438; QGAM   =    8.876    optimization parameters

   Description
     l     E      TYP  RCUT    TYP  RCUT
     2   .000     23  2.300
     2   .000     23  2.300
     0   .000     23  2.300
     0   .000     23  2.300
     1  -.200     23  2.300
     1   .000     23  2.300
     3   .000      7   .000

  PAW Fe                                :

 POSCAR: Fe bulk bcc
  positions in direct lattice
 exchange correlation table for  LEXCH =        2
   RHO(1)=    0.500       N(1)  =     2000
   RHO(2)=  100.500       N(2)  =     4000

 ion  position               nearest neighbor table
   1  0.000  0.000  0.000-

  LATTYP: Found a body centered cubic cell.
 ALAT       =     2.7300000000

  Lattice vectors:

 A1 = (  -1.3650000000,   1.3650000000,   1.3650000000)
 A2 = (   1.3650000000,  -1.3650000000,   1.3650000000)
 A3 = (   1.3650000000,   1.3650000000,  -1.3650000000)

Analysis of symmetry for initial positions (statically):
 Subroutine PRICEL returns:
 Original cell was already a primitive cell.

 Routine SETGRP: Setting up the symmetry group for a
 body centered cubic supercell.

 Subroutine GETGRP returns: Found 48 space group operations
 (whereof 48 operations were pure point group operations)
 out of a pool of 48 trial point group operations.

The static configuration has the point symmetry O_h .

Analysis of symmetry for dynamics (positions and initial velocities):
 Subroutine PRICEL returns:
 Original cell was already a primitive cell.

[...]

The dynamic configuration has the point symmetry O_h .

Analysis of structural, dynamic, and magnetic symmetry:
 Subroutine PRICEL returns:
 Original cell was already a primitive cell.

 Routine SETGRP: Setting up the symmetry group for a
 body centered cubic supercell.

 Subroutine GETGRP returns: Found 48 space group operations
 (whereof 48 operations were pure point group operations)
 out of a pool of 48 trial point group operations.

The magnetic configuration has the point symmetry O_h .

 Subroutine INISYM returns: Found 48 space group operations
 (whereof 48 operations are pure point group operations),
 and found     1 'primitive' translations

 KPOINTS: 20x20x20

Automatic generation of k-mesh.
Space group operators:
 irot       det(A)        alpha          n_x          n_y          n_z        tau_x        tau_y        tau_z
    1     1.000000     0.000000     1.000000     0.000000     0.000000     0.000000     0.000000     0.000000
    2    -1.000000     0.000000     1.000000     0.000000     0.000000     0.000000     0.000000     0.000000
    3     1.000000   120.000000    -0.577350    -0.577350    -0.577350     0.000000     0.000000     0.000000
    4    -1.000000   120.000000    -0.577350    -0.577350    -0.577350     0.000000     0.000000     0.000000
    5     1.000000   120.000000     0.577350     0.577350     0.577350     0.000000     0.000000     0.000000
    6    -1.000000   120.000000     0.577350     0.577350     0.577350     0.000000     0.000000     0.000000
    7     1.000000    90.000000     0.000000     0.000000    -1.000000     0.000000     0.000000     0.000000
    8    -1.000000    90.000000     0.000000     0.000000    -1.000000     0.000000     0.000000     0.000000
    9     1.000000   180.000000     0.000000     0.707107     0.707107     0.000000     0.000000     0.000000
   10    -1.000000   180.000000     0.000000     0.707107     0.707107     0.000000     0.000000     0.000000
   11     1.000000    90.000000     0.000000     1.000000     0.000000     0.000000     0.000000     0.000000
   12    -1.000000    90.000000     0.000000     1.000000     0.000000     0.000000     0.000000     0.000000
   13     1.000000   180.000000     0.000000     0.000000     1.000000     0.000000     0.000000     0.000000
   14    -1.000000   180.000000     0.000000     0.000000     1.000000     0.000000     0.000000     0.000000
   15     1.000000   120.000000    -0.577350     0.577350     0.577350     0.000000     0.000000     0.000000
   16    -1.000000   120.000000    -0.577350     0.577350     0.577350     0.000000     0.000000     0.000000
   17     1.000000   120.000000    -0.577350     0.577350    -0.577350     0.000000     0.000000     0.000000
   18    -1.000000   120.000000    -0.577350     0.577350    -0.577350     0.000000     0.000000     0.000000
   19     1.000000    90.000000     0.000000     0.000000     1.000000     0.000000     0.000000     0.000000
   20    -1.000000    90.000000     0.000000     0.000000     1.000000     0.000000     0.000000     0.000000
   21     1.000000    90.000000    -1.000000     0.000000     0.000000     0.000000     0.000000     0.000000
   22    -1.000000    90.000000    -1.000000     0.000000     0.000000     0.000000     0.000000     0.000000
   23     1.000000   180.000000     0.707107     0.000000     0.707107     0.000000     0.000000     0.000000
   24    -1.000000   180.000000     0.707107     0.000000     0.707107     0.000000     0.000000     0.000000
   25     1.000000   120.000000     0.577350    -0.577350     0.577350     0.000000     0.000000     0.000000
   26    -1.000000   120.000000     0.577350    -0.577350     0.577350     0.000000     0.000000     0.000000
   27     1.000000   120.000000    -0.577350    -0.577350     0.577350     0.000000     0.000000     0.000000
   28    -1.000000   120.000000    -0.577350    -0.577350     0.577350     0.000000     0.000000     0.000000
   29     1.000000   180.000000     1.000000     0.000000     0.000000     0.000000     0.000000     0.000000
   30    -1.000000   180.000000     1.000000     0.000000     0.000000     0.000000     0.000000     0.000000
   31     1.000000    90.000000     0.000000    -1.000000     0.000000     0.000000     0.000000     0.000000
   32    -1.000000    90.000000     0.000000    -1.000000     0.000000     0.000000     0.000000     0.000000
   33     1.000000   180.000000     0.707107     0.707107     0.000000     0.000000     0.000000     0.000000
   34    -1.000000   180.000000     0.707107     0.707107     0.000000     0.000000     0.000000     0.000000
   35     1.000000    90.000000     1.000000     0.000000     0.000000     0.000000     0.000000     0.000000
   36    -1.000000    90.000000     1.000000     0.000000     0.000000     0.000000     0.000000     0.000000
   37     1.000000   120.000000     0.577350    -0.577350    -0.577350     0.000000     0.000000     0.000000
   38    -1.000000   120.000000     0.577350    -0.577350    -0.577350     0.000000     0.000000     0.000000
   39     1.000000   180.000000     0.000000     1.000000     0.000000     0.000000     0.000000     0.000000
   40    -1.000000   180.000000     0.000000     1.000000     0.000000     0.000000     0.000000     0.000000
   41     1.000000   120.000000     0.577350     0.577350    -0.577350     0.000000     0.000000     0.000000
   42    -1.000000   120.000000     0.577350     0.577350    -0.577350     0.000000     0.000000     0.000000
   43     1.000000   180.000000     0.000000    -0.707107     0.707107     0.000000     0.000000     0.000000
   44    -1.000000   180.000000     0.000000    -0.707107     0.707107     0.000000     0.000000     0.000000
   45     1.000000   180.000000     0.707107    -0.707107     0.000000     0.000000     0.000000     0.000000
   46    -1.000000   180.000000     0.707107    -0.707107     0.000000     0.000000     0.000000     0.000000
   47     1.000000   180.000000     0.707107     0.000000    -0.707107     0.000000     0.000000     0.000000
   48    -1.000000   180.000000     0.707107     0.000000    -0.707107     0.000000     0.000000     0.000000

 Subroutine IBZKPT returns following result:

 Found    250 irreducible k-points:

 Following reciprocal coordinates:
            Coordinates               Weight
  0.025000  0.025000  0.025000      8.000000
  0.075000  0.025000  0.025000     24.000000
  0.125000  0.025000  0.025000     24.000000
  0.175000  0.025000  0.025000     24.000000
  0.225000  0.025000  0.025000     24.000000
  0.275000  0.025000  0.025000     24.000000
  0.325000  0.025000  0.025000     24.000000
  0.375000  0.025000  0.025000     24.000000
  0.425000  0.025000  0.025000     24.000000
  0.475000  0.025000  0.025000     12.000000
 -0.025000  0.025000  0.025000      6.000000
  0.075000  0.075000  0.025000     24.000000
  0.125000  0.075000  0.025000     48.000000
  0.175000  0.075000  0.025000     48.000000
  0.225000  0.075000  0.025000     48.000000
  0.275000  0.075000  0.025000     48.000000
  0.325000  0.075000  0.025000     48.000000
  0.375000  0.075000  0.025000     48.000000
  0.425000  0.075000  0.025000     48.000000
 -0.075000  0.075000  0.025000     24.000000
  0.125000  0.125000  0.025000     24.000000
  0.175000  0.125000  0.025000     48.000000
  0.225000  0.125000  0.025000     48.000000
  0.275000  0.125000  0.025000     48.000000
  0.325000  0.125000  0.025000     48.000000
  0.375000  0.125000  0.025000     48.000000
  0.425000  0.125000  0.025000     24.000000
 -0.125000  0.125000  0.025000     24.000000
 -0.075000  0.125000  0.025000     24.000000
  0.175000  0.175000  0.025000     24.000000
  0.225000  0.175000  0.025000     48.000000
  0.275000  0.175000  0.025000     48.000000
  0.325000  0.175000  0.025000     48.000000
  0.375000  0.175000  0.025000     48.000000
 -0.175000  0.175000  0.025000     24.000000
 -0.125000  0.175000  0.025000     48.000000
  0.225000  0.225000  0.025000     24.000000
  0.275000  0.225000  0.025000     48.000000
  0.325000  0.225000  0.025000     48.000000
  0.375000  0.225000  0.025000     24.000000
 -0.225000  0.225000  0.025000     24.000000
 -0.175000  0.225000  0.025000     48.000000
 -0.125000  0.225000  0.025000     24.000000
  0.275000  0.275000  0.025000     24.000000
  0.325000  0.275000  0.025000     48.000000
 -0.275000  0.275000  0.025000     24.000000
 -0.225000  0.275000  0.025000     48.000000
 -0.175000  0.275000  0.025000     48.000000
  0.325000  0.325000  0.025000      8.000000
 -0.325000  0.325000  0.025000     24.000000
 -0.275000  0.325000  0.025000     48.000000
 -0.225000  0.325000  0.025000     48.000000
 -0.175000  0.325000  0.025000     24.000000
 -0.375000  0.375000  0.025000     24.000000
 -0.325000  0.375000  0.025000     48.000000
 -0.275000  0.375000  0.025000     48.000000
 -0.225000  0.375000  0.025000     48.000000
 -0.425000  0.425000  0.025000     24.000000
 -0.375000  0.425000  0.025000     48.000000
 -0.325000  0.425000  0.025000     48.000000
[...]
 -0.425000  0.425000  0.325000     24.000000
 -0.375000  0.425000  0.325000     24.000000
 -0.475000  0.475000  0.325000     24.000000
 -0.425000  0.475000  0.325000     48.000000
 -0.475000 -0.475000  0.325000     24.000000
 -0.425000 -0.475000  0.325000     24.000000
 -0.375000  0.375000  0.375000      6.000000
 -0.425000  0.425000  0.375000     24.000000
[...]
 k-point 59 :  -0.3750 0.4250 0.0250  plane waves:     102
 k-point 60 :  -0.3250 0.4250 0.0250  plane waves:     102
[...]
 k-point 85 :   0.4250 0.0750 0.0750  plane waves:     106
 k-point 86 :  -0.0750 0.0750 0.0750  plane waves:      95
 k-point 87 :   0.1250 0.1250 0.0750  plane waves:     102
 k-point 88 :   0.1750 0.1250 0.0750  plane waves:     100
 k-point 89 :   0.2250 0.1250 0.0750  plane waves:     100
 k-point 90 :   0.2750 0.1250 0.0750  plane waves:     100
 k-point 91 :   0.3250 0.1250 0.0750  plane waves:     100
 k-point 92 :   0.3750 0.1250 0.0750  plane waves:     102
 k-point 93 :  -0.1250 0.1250 0.0750  plane waves:      99
 k-point 94 :   0.1750 0.1750 0.0750  plane waves:     100
 k-point 95 :   0.2250 0.1750 0.0750  plane waves:     100
 k-point 96 :   0.2750 0.1750 0.0750  plane waves:      97
 k-point 97 :   0.3250 0.1750 0.0750  plane waves:     101
 k-point 98 :   0.3750 0.1750 0.0750  plane waves:     101
 k-point 99 :  -0.1750 0.1750 0.0750  plane waves:     103
 k-point ** :  -0.1250 0.1750 0.0750  plane waves:     102
 k-point ** :   0.2250 0.2250 0.0750  plane waves:      99
 k-point ** :   0.2750 0.2250 0.0750  plane waves:      99
 k-point ** :   0.3250 0.2250 0.0750  plane waves:      99
 k-point ** :  -0.2250 0.2250 0.0750  plane waves:     103
 k-point ** :  -0.1750 0.2250 0.0750  plane waves:     101
 k-point ** :   0.2750 0.2750 0.0750  plane waves:      98
 k-point ** :   0.3250 0.2750 0.0750  plane waves:      97
 k-point ** :  -0.2750 0.2750 0.0750  plane waves:     103
 k-point ** :  -0.2250 0.2750 0.0750  plane waves:     102
 k-point ** :  -0.1750 0.2750 0.0750  plane waves:     102
 k-point ** :  -0.3250 0.3250 0.0750  plane waves:     104
 k-point ** :  -0.2750 0.3250 0.0750  plane waves:     103
 k-point ** :  -0.2250 0.3250 0.0750  plane waves:     101
 k-point ** :  -0.3750 0.3750 0.0750  plane waves:     103
 k-point ** :  -0.3250 0.3750 0.0750  plane waves:     103
 k-point ** :  -0.2750 0.3750 0.0750  plane waves:     101
 k-point ** :  -0.2250 0.3750 0.0750  plane waves:     103
 k-point ** :  -0.4250 0.4250 0.0750  plane waves:     103
 k-point ** :  -0.3750 0.4250 0.0750  plane waves:     101
 k-point ** :  -0.3250 0.4250 0.0750  plane waves:     100
 k-point ** :  -0.2750 0.4250 0.0750  plane waves:     101
 k-point ** :  -0.4750 0.4750 0.0750  plane waves:     106
 k-point ** :  -0.4250 0.4750 0.0750  plane waves:     102
 k-point ** :  -0.3750 0.4750 0.0750  plane waves:      99
 k-point ** :  -0.3250 0.4750 0.0750  plane waves:     100
 k-point ** :  -0.2750 0.4750 0.0750  plane waves:     100
 k-point ** :  -0.4750-0.4750 0.0750  plane waves:     102
 k-point ** :  -0.4250-0.4750 0.0750  plane waves:     101
 k-point ** :  -0.3750-0.4750 0.0750  plane waves:     100
 k-point ** :  -0.3250-0.4750 0.0750  plane waves:     100
 k-point ** :  -0.4250-0.4250 0.0750  plane waves:     101
 k-point ** :  -0.3750-0.4250 0.0750  plane waves:     102
 k-point ** :  -0.3250-0.4250 0.0750  plane waves:     100
 k-point ** :  -0.3750-0.3750 0.0750  plane waves:     103
 k-point ** :   0.1250 0.1250 0.1250  plane waves:     104
 k-point ** :   0.1750 0.1250 0.1250  plane waves:     101
 k-point ** :   0.2250 0.1250 0.1250  plane waves:      99
 k-point ** :   0.2750 0.1250 0.1250  plane waves:      97
 k-point ** :   0.3250 0.1250 0.1250  plane waves:     100
 k-point ** :   0.3750 0.1250 0.1250  plane waves:     102
 k-point ** :  -0.1250 0.1250 0.1250  plane waves:     103
 k-point ** :   0.1750 0.1750 0.1250  plane waves:      99
 k-point ** :   0.2250 0.1750 0.1250  plane waves:      99
 k-point ** :   0.2750 0.1750 0.1250  plane waves:      97
 k-point ** :   0.3250 0.1750 0.1250  plane waves:      98
 k-point ** :  -0.1750 0.1750 0.1250  plane waves:     103
 k-point ** :   0.2250 0.2250 0.1250  plane waves:      96
 k-point ** :   0.2750 0.2250 0.1250  plane waves:      96
 k-point ** :   0.3250 0.2250 0.1250  plane waves:      99
 k-point ** :  -0.2250 0.2250 0.1250  plane waves:     103
 k-point ** :  -0.1750 0.2250 0.1250  plane waves:     102
 k-point ** :   0.2750 0.2750 0.1250  plane waves:      97
 k-point ** :  -0.2750 0.2750 0.1250  plane waves:     104
 k-point ** :  -0.2250 0.2750 0.1250  plane waves:     105
 k-point ** :  -0.3250 0.3250 0.1250  plane waves:     103
 k-point ** :  -0.2750 0.3250 0.1250  plane waves:     104
 k-point ** :  -0.2250 0.3250 0.1250  plane waves:     105
 k-point ** :  -0.3750 0.3750 0.1250  plane waves:      99
 k-point ** :  -0.3250 0.3750 0.1250  plane waves:     100
[...]
 k-point ** :  -0.4250 0.4250 0.3250  plane waves:     104
 k-point ** :  -0.3750 0.4250 0.3250  plane waves:     106
 k-point ** :  -0.4750 0.4750 0.3250  plane waves:     105
 k-point ** :  -0.4250 0.4750 0.3250  plane waves:     106
 k-point ** :  -0.4750-0.4750 0.3250  plane waves:     104
 k-point ** :  -0.4250-0.4750 0.3250  plane waves:     108
 k-point ** :  -0.3750 0.3750 0.3750  plane waves:     108
 k-point ** :  -0.4250 0.4250 0.3750  plane waves:     106
 k-point ** :  -0.4750 0.4750 0.3750  plane waves:     105
 k-point ** :  -0.4250 0.4750 0.3750  plane waves:     106
 k-point ** :  -0.4750-0.4750 0.3750  plane waves:     108
 k-point ** :  -0.4250 0.4250 0.4250  plane waves:     108
 k-point ** :  -0.4750 0.4750 0.4250  plane waves:     107
 k-point ** :  -0.4750-0.4750 0.4250  plane waves:     110
 k-point ** :  -0.4750 0.4750 0.4750  plane waves:     112

 maximum and minimum number of plane-waves per node :       112       87

 maximum number of plane-waves:       112
 maximum index in each direction:
   IXMAX=    3   IYMAX=    3   IZMAX=    3
   IXMIN=   -3   IYMIN=   -3   IZMIN=   -3

 serial   3D FFT for wavefunctions
 parallel 3D FFT for charge:
    minimum data exchange during FFTs selected (reduces bandwidth)

 Broyden mixing: mesh for mixing (old mesh)
   NGX =  7   NGY =  7   NGZ =  7
  (NGX  = 20   NGY  = 20   NGZ  = 20)
  gives a total of    343 points

 initial charge density was supplied:
 charge density of overlapping atoms calculated
 number of electron       8.0000000 magnetization       3.0000000
 keeping initial charge density in first step

 Maximum index for augmentation-charges         3479 (set IRDMAX)

 First call to EWALD:  gamma=   0.818
 Maximum number of real-space cells 3x 3x 3
 Maximum number of reciprocal cells 3x 3x 3

--------------------------------------- Iteration      1(   1)  ---------------------------------------

 eigenvalue-minimisations  : 11120
 total energy-change (2. order) : 0.6705801E+01  (-0.2769883E+03)
 number of electron       8.0000000 magnetization       3.0000000
 augmentation part        8.0000000 magnetization       3.0000000

 Free energy of the ion-electron system (eV)
  alpha Z        PSCENC =        65.82846071
  Ewald energy   TEWEN  =      -614.26153397
  -Hartree energ DENC   =      -102.71104329
  -exchange      EXHF   =         0.00000000
  -V(xc)+E(xc)   XCENC  =         5.88453821
  PAW double counting   =       478.07446770     -487.43411278
  entropy T*S    EENTRO =         0.00022186
  eigenvalues    EBANDS =        63.99445069
  atomic energy  EATOM  =       597.33035224
  Solvation  Ediel_sol  =         0.00000000
  free energy    TOTEN  =         6.70580137 eV

  energy without entropy =        6.70557951  energy(sigma->0) =        6.70572742

[...]

 eigenvalue-minimisations  : 10204
 total energy-change (2. order) :-0.1672727E+02  (-0.1529343E+02)
 number of electron       8.0000000 magnetization       3.0000000
 augmentation part        8.0000000 magnetization       3.0000000

[...]

 Broyden mixing:
  rms(total) = 0.87781E+00    rms(broyden)= 0.87725E+00
  rms(prec ) = 0.33228E+01
  weight for this iteration     100.00

[...]

 eigenvalues of (default mixing * dielectric matrix)
  average eigenvalue GAMMA=   0.8075
  0.8075

[...]

 average (electrostatic) potential at core
  the test charge radii are     1.0103
  (the norm of the test charge is              1.0000)
       1 -42.8644

 E-fermi :   6.9786     XC(G=0): -14.0518     alpha+bet :-15.1543

 spin component 1

 k-point     1 :       0.0250    0.0250    0.0250
  band No.  band energies     occupation
      1      -2.0897      1.00000
      2       4.3931      1.00000
      3       4.3931      1.00000
      4       4.5485      1.00000
      5       6.0030      1.00000
      6       6.0030      1.00000
      7      32.2074      0.00000
      8      32.2074      0.00000
      9      33.0219      0.00000
     10      38.9061      0.00000

[...]

 soft charge-density along one line, spin component           1
         0         1         2         3         4         5         6         7         8         9
 total charge-density along one line

[...]

------------------------ aborting loop because EDIFF is reached ----------------------------------------

  FORCE on cell =-STRESS in cart. coord.  units (eV):
  Direction    XX          YY          ZZ          XY          YZ          ZX
  Alpha Z    65.82846    65.82846    65.82846
  Ewald    -204.75384  -204.75384  -204.75384    -0.00000    -0.00000    -0.00000
  Hartree    28.83405    28.83405    28.83405    -0.00000    -0.00000    -0.00000
  E(xc)     -39.79103   -39.79103   -39.79103     0.00000     0.00000     0.00000
  Local      61.87693    61.87693    61.87693     0.00001     0.00001     0.00001
  n-local   -26.45943   -25.00295   -23.97441     1.03751    -0.92671    -1.77144
  augment    38.00663    38.00663    38.00663    -0.00000    -0.00000    -0.00000
  Kinetic    75.30204    75.14656    75.10790    -1.36804     2.14717     1.13136
  Fock        0.00000     0.00000     0.00000     0.00000     0.00000     0.00000
  Total       0.04110     0.04110     0.04110    -0.00000     0.00000    -0.00000
  in kB       6.47293     6.47293     6.47293    -0.00000     0.00000    -0.00000

 VOLUME and BASIS-vectors are now :
  energy-cutoff  :      267.97
  volume of cell :       10.17
      direct lattice vectors                 reciprocal lattice vectors
    -1.365000000  1.365000000  1.365000000     0.000000000  0.366300366  0.366300366
     1.365000000 -1.365000000  1.365000000     0.366300366  0.000000000  0.366300366
     1.365000000  1.365000000 -1.365000000     0.366300366  0.366300366  0.000000000

[...]

 FORCES acting on ions
    electron-ion (+dipol)            ewald-force                    non-local-force                 convergence-correction
   0.112E-13 0.139E-14 0.979E-14   0.124E-14 -.521E-15 0.157E-14   -.414E-23 0.827E-24 0.827E-24   0.806E-14 0.179E-13 0.126E-13
   0.112E-13 0.139E-14 0.979E-14   0.124E-14 -.521E-15 0.157E-14   -.414E-23 0.827E-24 0.827E-24   0.806E-14 0.179E-13 0.126E-13

 POSITION                                       TOTAL-FORCE (eV/Angst)
      0.00000      0.00000      0.00000         0.000000      0.000000     -0.000000
    total drift:                                0.000000      0.000000      0.000000

  FREE ENERGIE OF THE ION-ELECTRON SYSTEM (eV)
  free  energy   TOTEN  =        -9.22720807 eV

  energy  without entropy=       -9.22765492  energy(sigma->0) =       -9.22735702

[...]

 d Force = 0.0000000E+00[ 0.000E+00, 0.000E+00]  d Energy =-0.2036061E-03 0.204E-03
 d Force = 0.0000000E+00[ 0.000E+00, 0.000E+00]  d Ewald  =-0.1215549E+01 0.122E+01

 Steepest descent step on ions:
 trial-energy change:    0.000204  1 .order    0.000148   -0.000244    0.000541
  (g-gl).g = 0.244E-03      g.g   = 0.244E-03  gl.gl    = 0.000E+00
 g(Force)  = 0.122E-61   g(Stress)= 0.244E-03 ortho     = 0.000E+00
 gamma     =   0.00000
 trial     =   1.00000
 opt step  =   0.23517  (harmonic =   0.31129) maximal distance =0.00000000
 next E    =    -9.227236   (d E  =  -0.00003)

[...]

 eigenvalue-minimisations  : 10210
 total energy-change (2. order) :-0.2349926E-05  (-0.3301913E-06)
 number of electron       8.0000036 magnetization       1.9037066
 augmentation part        4.1180362 magnetization       1.5310057

 Broyden mixing:
  rms(total) = 0.21560E-03    rms(broyden)= 0.21474E-03
  rms(prec ) = 0.66482E-03
  weight for this iteration     100.00

 eigenvalues of (default mixing * dielectric matrix)
  average eigenvalue GAMMA=   1.1869
  2.4247  0.8564  0.8203  0.6464

[...]

--------------------------------------- Iteration      3(   6)  ---------------------------------------

 eigenvalue-minimisations  :  5056
 total energy-change (2. order) : 0.2522734E-07  (-0.3253773E-08)
 number of electron       8.0000036 magnetization       1.9037066
 augmentation part        4.1180362 magnetization       1.5310057

 Free energy of the ion-electron system (eV)
  alpha Z        PSCENC =        65.73646042
  Ewald energy   TEWEN  =      -613.97524148
  -Hartree energ DENC   =       -86.58948478
  -exchange      EXHF   =         0.00000000
  -V(xc)+E(xc)   XCENC  =         4.65479887
  PAW double counting   =       539.24361900     -550.20212696
  entropy T*S    EENTRO =         0.00039439
  eigenvalues    EBANDS =        34.57400467
  atomic energy  EATOM  =       597.33035224
  Solvation  Ediel_sol  =         0.00000000
  free energy    TOTEN  =        -9.22722362 eV

  energy without entropy =       -9.22761801  energy(sigma->0) =       -9.22735509

 average (electrostatic) potential at core
  the test charge radii are     1.0103
  (the norm of the test charge is              1.0000)
       1 -42.8780

 E-fermi :   6.9625     XC(G=0): -14.0435     alpha+bet :-15.1332

[...]

 spin component 2

[...]

 k-point   250 :      -0.4750    0.4750    0.4750
  band No.  band energies     occupation
      1       2.8717      1.00000
      2       2.8739      1.00000
      3       9.0011     -0.00000
      4       9.0012     -0.00000
      5       9.0435     -0.00000
      6      17.6159      0.00000
      7      18.0810      0.00000
      8      18.0810      0.00000
      9      24.9195      0.00000
     10      25.1745      0.00000

[...]

 soft charge-density along one line, spin component           2
         0         1         2         3         4         5         6         7         8         9
 total charge-density along one line

------------------------ aborting loop because EDIFF is reached ----------------------------------------

  FORCE on cell =-STRESS in cart. coord.  units (eV):
  Direction    XX          YY          ZZ          XY          YZ          ZX
  Alpha Z    65.73646    65.73646    65.73646
  Ewald    -204.65841  -204.65841  -204.65841     0.00000     0.00000    -0.00000
  Hartree    28.86451    28.86451    28.86451    -0.00000    -0.00000    -0.00000
  E(xc)     -39.78747   -39.78747   -39.78747     0.00000     0.00000     0.00000
  Local      61.83716    61.83716    61.83716     0.00001     0.00001     0.00001
  n-local   -26.48534   -25.03249   -24.00610     1.03595    -0.92238    -1.76727
  augment    38.00777    38.00777    38.00777    -0.00001    -0.00001    -0.00001
  Kinetic    75.28998    75.12736    75.09068    -1.37582     2.14406     1.13229
  Fock        0.00000     0.00000     0.00000     0.00000     0.00000     0.00000
  Total      -0.00528    -0.00528    -0.00528    -0.00000    -0.00000    -0.00000
  in kB      -0.83116    -0.83116    -0.83116    -0.00000    -0.00000    -0.00000

 VOLUME and BASIS-vectors are now :
  energy-cutoff  :      267.97
  volume of cell :       10.19
      direct lattice vectors                 reciprocal lattice vectors
    -1.365636490  1.365636490  1.365636490     0.000000000  0.366129643  0.366129643
     1.365636490 -1.365636490  1.365636490     0.366129643  0.000000000  0.366129643
     1.365636490  1.365636490 -1.365636490     0.366129643  0.366129643  0.000000000

  length of vectors
     2.365351786  2.365351786  2.365351786     0.517785506  0.517785506  0.517785506

 FORCES acting on ions
    electron-ion (+dipol)            ewald-force                    non-local-force                 convergence-correction
   0.612E-14 0.690E-14 0.550E-14   0.141E-15 0.120E-14 -.119E-14   -.364E-26 0.283E-26 0.404E-27   0.368E-14 0.140E-13 0.160E-13
   0.612E-14 0.690E-14 0.550E-14   0.141E-15 0.120E-14 -.119E-14   -.364E-26 0.283E-26 0.404E-27   0.368E-14 0.140E-13 0.160E-13

 POSITION                                       TOTAL-FORCE (eV/Angst)
      0.00000      0.00000     -0.00000        -0.000000     -0.000000      0.000000
    total drift:                                0.000000      0.000000      0.000000

  FREE ENERGIE OF THE ION-ELECTRON SYSTEM (eV)
  free  energy   TOTEN  =        -9.22722362 eV

  energy  without entropy=       -9.22761801  energy(sigma->0) =       -9.22735509

 d Force = 0.0000000E+00[ 0.000E+00, 0.000E+00]  d Energy = 0.2191632E-03-0.219E-03
 d Force = 0.0000000E+00[ 0.000E+00, 0.000E+00]  d Ewald  = 0.9292562E+00-0.929E+00

 reached required accuracy - stopping structural energy minimisation