 vasp.5.4.4.18Apr17-6-g9f103f2a35 (build May 20 2018 16:52:39) complex

 executed on             LinuxIFC date 2022.11.14  11:06:25

 INCAR:
 POTCAR:   PAW_GGA Mo 08Jan2002
 POTCAR:   PAW_GGA S 21Jan2003
 POTCAR:   PAW_GGA Mo 08Jan2002
   VRHFIN =Mo: 4p5s4d

   TITEL  = PAW_GGA Mo 08Jan2002
   POMASS =   95.940; ZVAL   =    6.000    mass and valenz
   ENMAX  =  224.580; ENMIN  =  168.435 eV
   QCUT   =   -4.063; QGAM   =    8.126    optimization parameters

   Description
     l     E      TYP  RCUT    TYP  RCUT
     2   .000     23  2.500
     2   .000     23  2.500
     0   .000     23  2.600
     0  1.000     23  2.600
     1   .400     23  2.750
     1  2.000     23  2.750
     3   .000      7   .000

 POTCAR:   PAW_GGA S 21Jan2003
   VRHFIN =S : s2p4

   TITEL  = PAW_GGA S 21Jan2003
   POMASS =   32.066; ZVAL   =    6.000    mass and valenz
   ENMAX  =  280.000; ENMIN  =  194.015 eV
   QCUT   =   -4.360; QGAM   =    8.721    optimization parameters

   Description
     l     E      TYP  RCUT    TYP  RCUT
     0   .000     23  1.900
     0   .000     23  1.900
     1   .000     23  1.900
     1   .000     23  1.900
     2   .000      7  1.900

 PAW_GGA Mo 08Jan2002                   :
 PAW_GGA S 21Jan2003                    :

 POSCAR: MoS2 monolayer
  positions in direct lattice
 exchange correlation table for  LEXCH =        7
   RHO(1)=    0.500       N(1)  =     2000
   RHO(2)=  100.500       N(2)  =     4000

 ion  position               nearest neighbor table
   1  0.333  0.667  0.250-
   2  0.667  0.333  0.355-
   3  0.333  0.667  0.855-

  LATTYP: Found a hexagonal cell.
 ALAT       =     3.1903153920
 C/A-ratio  =     9.4034590046

  Lattice vectors:

 A1 = (   3.1903160000,   0.0000000000,   0.0000000000)
 A2 = (  -1.5951580000,   2.7628940000,   0.0000000000)
 A3 = (   0.0000000000,   0.0000000000,  30.0000000000)

Analysis of symmetry for initial positions (statically):
 Subroutine PRICEL returns:
 Original cell was already a primitive cell.

 Routine SETGRP: Setting up the symmetry group for a
 hexagonal supercell.

 Subroutine GETGRP returns: Found  6 space group operations
 (whereof  6 operations were pure point group operations)
 out of a pool of 24 trial point group operations.

The static configuration has the point symmetry C_3v.

Analysis of symmetry for dynamics (positions and initial velocities):
 Subroutine PRICEL returns:
 Original cell was already a primitive cell.

 Routine SETGRP: Setting up the symmetry group for a
 hexagonal supercell.

 Subroutine GETGRP returns: Found  6 space group operations
 (whereof  6 operations were pure point group operations)
 out of a pool of 24 trial point group operations.

The dynamic configuration has the point symmetry C_3v.

 Subroutine INISYM returns: Found  6 space group operations
 (whereof  6 operations are pure point group operations),
 and found     1 'primitive' translations

 KPOINTS: 10x10 Gamma-centered

Automatic generation of k-mesh.
Space group operators:
 irot       det(A)        alpha          n_x          n_y          n_z        tau_x        tau_y        tau_z
    1     1.000000     0.000000     1.000000     0.000000     0.000000     0.000000     0.000000     0.000000
    2     1.000000   120.000000     0.000000     0.000000    -1.000000     0.000000     0.000000     0.000000
    3     1.000000   120.000000     0.000000     0.000000     1.000000     0.000000     0.000000     0.000000
    4    -1.000000   180.000000     1.000000     0.000000     0.000000     0.000000     0.000000     0.000000
    5    -1.000000   180.000000     0.500000    -0.866025     0.000000     0.000000     0.000000     0.000000
    6    -1.000000   180.000000    -0.500000    -0.866025     0.000000     0.000000     0.000000     0.000000

 Subroutine IBZKPT returns following result:

 Found     14 irreducible k-points:

 Following reciprocal coordinates:
            Coordinates               Weight
  0.000000  0.000000  0.000000      1.000000
  0.100000  0.000000  0.000000      6.000000
  0.200000  0.000000  0.000000      6.000000
  0.300000  0.000000  0.000000      6.000000
  0.400000  0.000000  0.000000      6.000000
  0.500000  0.000000  0.000000      3.000000
  0.100000  0.100000  0.000000      6.000000
  0.200000  0.100000  0.000000     12.000000
  0.300000  0.100000  0.000000     12.000000
  0.400000  0.100000  0.000000     12.000000
  0.200000  0.200000  0.000000      6.000000
  0.300000  0.200000  0.000000     12.000000
  0.400000  0.200000  0.000000      6.000000
  0.300000  0.300000  0.000000      6.000000

 Following cartesian coordinates:
            Coordinates               Weight
  0.000000  0.000000  0.000000      1.000000
  0.031345  0.018097  0.000000      6.000000
  0.062690  0.036194  0.000000      6.000000
  0.094035  0.054291  0.000000      6.000000
  0.125379  0.072388  0.000000      6.000000
  0.156724  0.090485  0.000000      3.000000
  0.031345  0.054291  0.000000      6.000000
  0.062690  0.072388  0.000000     12.000000
  0.094035  0.090485  0.000000     12.000000
  0.125379  0.108582  0.000000     12.000000
  0.062690  0.108582  0.000000      6.000000
  0.094035  0.126679  0.000000     12.000000
  0.125379  0.144776  0.000000      6.000000
  0.094035  0.162873  0.000000      6.000000

 TETIRR: Found     55 inequivalent tetrahedra from      600

 SYSTEM =  bulk MoS2
 POSCAR =  MoS2 monolayer

 Startparameter for this run:
   NWRITE =      2    write-flag & timer
   PREC   = normal    normal or accurate (medium, high low for compatibility)
   ISTART =      0    job   : 0-new  1-cont  2-samecut
   ICHARG =      2    charge: 1-file 2-atom 10-const
   ISPIN  =      1    spin polarized calculation?
   LNONCOLLINEAR =      F non collinear calculations
   LSORBIT =      F    spin-orbit coupling
   INIWAV =      1    electr: 0-lowe 1-rand  2-diag
   LASPH  =      F    aspherical Exc in radial PAW
   METAGGA=      F    non-selfconsistent MetaGGA calc.

 Electronic Relaxation 1
   ENCUT  =  280.0 eV  20.58 Ry    4.54 a.u.   4.35  4.35 40.93*2*pi/ulx,y,z
   ENINI  =  280.0     initial cutoff
   ENAUG  =  345.3 eV  augmentation charge cutoff
   NELM   =     60;   NELMIN=  2; NELMDL= -5     # of ELM steps
   EDIFF  = 0.1E-05   stopping-criterion for ELM
   LREAL  =      F    real-space projection
   NLSPLINE    = F    spline interpolate recip. space projectors
   LCOMPAT=      F    compatible to vasp.4.4
   GGA_COMPAT  = T    GGA compatible to vasp.4.4-vasp.4.6
   LMAXPAW     = -100 max onsite density
   LMAXMIX     =    2 max onsite mixed and CHGCAR
   VOSKOWN=      0    Vosko Wilk Nusair interpolation
   ROPT   =    0.00000   0.00000
 Ionic relaxation
   EDIFFG = 0.1E-04   stopping-criterion for IOM
   NSW    =      0    number of steps for IOM
   NBLOCK =      1;   KBLOCK =      1    inner block; outer block
   IBRION =     -1    ionic relax: 0-MD 1-quasi-New 2-CG
   NFREE  =      0    steps in history (QN), initial steepest desc. (CG)
   ISIF   =      2    stress and relaxation
   IWAVPR =     10    prediction:  0-non 1-charg 2-wave 3-comb
   ISYM   =      2    0-nonsym 1-usesym 2-fastsym
   LCORR  =      T    Harris-Foulkes like correction to forces

   POTIM  = 0.5000    time-step for ionic-motion
   TEIN   =    0.0    initial temperature
   TEBEG  =    0.0;   TEEND  =   0.0 temperature during run
   SMASS  =  -3.00    Nose mass-parameter (am)
   estimated Nose-frequenzy (Omega)   =  0.10E-29 period in steps =****** mass=  -0.233E-27a.u.
   SCALEE = 1.0000    scale energy and forces
   NPACO  =    256;   APACO  = 16.0  distance and # of slots for P.C.
   PSTRESS=    0.0 pullay stress

  Mass of Ions in am
   POMASS =  95.94 32.07
  Ionic Valenz
   ZVAL   =   6.00  6.00
  Atomic Wigner-Seitz radii
  virtual crystal weights
   VCA    =   1.00  1.00
   NELECT =      18.0000    total number of electrons
   NUPDOWN=      -1.0000    fix difference up-down

 DOS related values:
   EMIN   =  10.00;   EMAX   =-10.00  energy-range for DOS
   EFERMI =   0.00
   ISMEAR =    -5;   SIGMA  =   0.20  broadening in eV -4-tet -1-fermi 0-gaus

 Electronic relaxation 2 (details)
   IALGO  =     38    algorithm
   LDIAG  =      T    sub-space diagonalisation (order eigenvalues)
   LSUBROT=      F    optimize rotation matrix (better conditioning)
   TURBO    =      0    0=normal 1=particle mesh
   IRESTART =      0    0=no restart 2=restart with 2 vectors
   NREBOOT  =      0    no. of reboots
   NMIN     =      0    reboot dimension
   EREF     =   0.00    reference energy to select bands
   IMIX   =      4    mixing-type and parameters
     AMIX     =   0.40;   BMIX     =  1.00
     AMIX_MAG =   1.60;   BMIX_MAG =  1.00
     AMIN     =   0.10
     WC   =   100.;   INIMIX=   1;  MIXPRE=   1;  MAXMIX= -45

 Intra band minimization:
   WEIMIN = 0.0000     energy-eigenvalue tresh-hold
   EBREAK =  0.19E-07  absolut break condition
   DEPER  =   0.30     relativ break condition

   TIME   =   0.40     timestep for ELM

  volume/ion in A,a.u.               =      88.15       594.83
  Fermi-wavevector in a.u.,A,eV,Ry     =   0.668435  1.263159  6.079158  0.446806
  Thomas-Fermi vector in A             =   1.743346

 Write flags
   LWAVE        =      F    write WAVECAR
   LDOWNSAMPLE  =      F    k-point downsampling of WAVECAR
   LCHARG       =      T    write CHGCAR
   LVTOT        =      F    write LOCPOT, total local potential
   LVHAR        =      F    write LOCPOT, Hartree potential only
   LELF         =      F    write electronic localiz. function (ELF)
   LORBIT       =      0    0 simple, 1 ext, 2 COOP (PROOUT), +10 PAW based schemes

 Dipole corrections
   LMONO  =      F    monopole corrections only (constant potential shift)
   LDIPOL =      F    correct potential (dipole corrections)
   IDIPOL =      0    1-x, 2-y, 3-z, 4-all directions
   EPSILON=  1.0000000 bulk dielectric constant

 Exchange correlation treatment:
   GGA     =    --    GGA type
   VOSKOWN=      0    Vosko Wilk Nusair interpolation
   LHFCALC =     F    Hartree Fock is set to
   LHFONE  =     F    Hartree Fock one center treatment
   AEXX    =    0.0000 exact exchange contribution

 Linear response parameters
   LEPSILON=     F    determine dielectric tensor
   LRPA    =     F    only Hartree local field effects (RPA)
   LNABLA  =     F    use nabla operator in PAW spheres
   LVEL    =     F    velocity operator in full k-point grid
   LINTERFAST=   F  fast interpolation
   KINTER  =     0    interpolate to denser k-point grid
   CSHIFT  =0.1000    complex shift for real part using Kramers Kronig
   OMEGAMAX=  -1.0    maximum frequency
   DEG_THRESHOLD= 0.2000000E-02 threshold for treating states as degnerate
   RTIME   =   -0.100 relaxation time in fs
  (WPLASMAI=    0.000 imaginary part of plasma frequency in eV, 0.658/RTIME)
   DFIELD  = 0.0000000 0.0000000 0.0000000 field for delta impulse in time

 Orbital magnetization related:
   ORBITALMAG=     F  switch on orbital magnetization
   LCHIMAG   =     F  perturbation theory with respect to B field
   DQ        =  0.001000  dq finite difference perturbation B field
   LLRAUG    =     F  two centre corrections for induced B field

 Static calculation
 charge density and potential will be updated during run
 non-spin polarized calculation
 Variant of blocked Davidson
 Davidson routine will perform the subspace rotation
 perform sub-space diagonalisation
    after iterative eigenvector-optimisation
 modified Broyden-mixing scheme, WC =      100.0
 initial mixing is a Kerker type mixing with AMIX =  0.4000 and BMIX =      1.0000
 Hartree-type preconditioning will be used
 using additional bands            4
 reciprocal scheme for non local part
 use partial core corrections
 calculate Harris-corrections to forces
   (improved forces if not selfconsistent)
 use gradient corrections
 use of overlap-Matrix (Vanderbilt PP)
 Fermi weights with tetrahedron method with Bloechl corrections

  energy-cutoff  :      280.00
  volume of cell :      264.44
      direct lattice vectors                 reciprocal lattice vectors
     3.190316000  0.000000000  0.000000000     0.313448574  0.180969664  0.000000000
    -1.595158000  2.762894000  0.000000000     0.000000000  0.361939329  0.000000000
     0.000000000  0.000000000 30.000000000     0.000000000  0.000000000  0.033333333

  length of vectors
     3.190316000  3.190315392 30.000000000     0.361939260  0.361939329  0.033333333

 k-points in units of 2pi/SCALE and weight: 10x10 Gamma-centered
   0.00000000  0.00000000  0.00000000       0.010
   0.03134486  0.01809697  0.00000000       0.060
   0.06268971  0.03619393  0.00000000       0.060
   0.09403457  0.05429090  0.00000000       0.060
   0.12537943  0.07238787  0.00000000       0.060
   0.15672429  0.09048483  0.00000000       0.030
   0.03134486  0.05429090  0.00000000       0.060
   0.06268971  0.07238787  0.00000000       0.120
   0.09403457  0.09048483  0.00000000       0.120
   0.12537943  0.10858180  0.00000000       0.120
   0.06268971  0.10858180  0.00000000       0.060
   0.09403457  0.12667877  0.00000000       0.120
   0.12537943  0.14477573  0.00000000       0.060
   0.09403457  0.16287270  0.00000000       0.060

 k-points in reciprocal lattice and weights: 10x10 Gamma-centered
   0.00000000  0.00000000  0.00000000       0.010
   0.10000000  0.00000000  0.00000000       0.060
   0.20000000  0.00000000  0.00000000       0.060
   0.30000000  0.00000000  0.00000000       0.060
   0.40000000  0.00000000  0.00000000       0.060
   0.50000000  0.00000000  0.00000000       0.030
   0.10000000  0.10000000  0.00000000       0.060
   0.20000000  0.10000000  0.00000000       0.120
   0.30000000  0.10000000  0.00000000       0.120
   0.40000000  0.10000000  0.00000000       0.120
   0.20000000  0.20000000  0.00000000       0.060
   0.30000000  0.20000000  0.00000000       0.120
   0.40000000  0.20000000  0.00000000       0.060
   0.30000000  0.30000000  0.00000000       0.060

 position of ions in fractional coordinates (direct lattice)
   0.33333300  0.66666700  0.25000000
   0.66666700  0.33333300  0.35517400
   0.33333300  0.66666700  0.85517400

 position of ions in cartesian coordinates  (Angst):
  -0.00000160  1.84193025  7.50000000
   1.59515960  0.92096375 10.65522000
  -0.00000160  1.84193025 25.65522000

 k-point  1 :   0.0000 0.0000 0.0000  plane waves:    2883
 k-point  2 :   0.1000 0.0000 0.0000  plane waves:    2877
 k-point  3 :   0.2000 0.0000 0.0000  plane waves:    2823
 k-point  4 :   0.3000 0.0000 0.0000  plane waves:    2808
 k-point  5 :   0.4000 0.0000 0.0000  plane waves:    2798
 k-point  6 :   0.5000 0.0000 0.0000  plane waves:    2776
 k-point  7 :   0.1000 0.1000 0.0000  plane waves:    2823
 k-point  8 :   0.2000 0.1000 0.0000  plane waves:    2815
 k-point  9 :   0.3000 0.1000 0.0000  plane waves:    2797
 k-point 10 :   0.4000 0.1000 0.0000  plane waves:    2804
 k-point 11 :   0.2000 0.2000 0.0000  plane waves:    2830
 k-point 12 :   0.3000 0.2000 0.0000  plane waves:    2811
 k-point 13 :   0.4000 0.2000 0.0000  plane waves:    2804
 k-point 14 :   0.3000 0.3000 0.0000  plane waves:    2806

 maximum and minimum number of plane-waves per node :      2883     2776

 maximum number of plane-waves:      2883
 maximum index in each direction:
   IXMAX=    4   IYMAX=    4   IZMAX=   40
   IXMIN=   -4   IYMIN=   -4   IZMIN=  -40

 serial   3D FFT for wavefunctions
 parallel 3D FFT for charge:
    minimum data exchange during FFTs selected (reduces bandwidth)

 Broyden mixing: mesh for mixing (old mesh)
   NGX =  9   NGY =  9   NGZ = 81
  (NGX  = 28   NGY  = 28   NGZ  =252)
  gives a total of   6561 points

 initial charge density was supplied:
 charge density of overlapping atoms calculated
 number of electron      18.0000000 magnetization
 keeping initial charge density in first step

 Maximum index for augmentation-charges         5820 (set IRDMAX)

 First call to EWALD:  gamma=   0.276
 Maximum number of real-space cells 6x 6x 1
 Maximum number of reciprocal cells 2x 2x11

--------------------------------------- Iteration      1(   1)  ---------------------------------------

 BZINTS: Fermi energy:  5.139782; 18.000000 electrons
         Band energy: -23.626182;  BLOECHL correction: -0.159127

 eigenvalue-minimisations  :   364
 total energy-change (2. order) : 0.8943558E+02  (-0.4198623E+03)
 number of electron      18.0000000 magnetization
 augmentation part       18.0000000 magnetization

 Free energy of the ion-electron system (eV)
  alpha Z        PSCENC =         9.92223239
  Ewald energy   TEWEN  =       823.41689292
  -Hartree energ DENC   =     -1530.20405688
  -exchange      EXHF   =         0.00000000
  -V(xc)+E(xc)   XCENC  =       -40.42027775
  PAW double counting   =       408.00268931     -330.16966160
  entropy T*S    EENTRO =         0.00000000
  eigenvalues    EBANDS =       -23.62618208
  atomic energy  EATOM  =       772.51394549
  Solvation  Ediel_sol  =         0.00000000
  free energy    TOTEN  =        89.43558180 eV

  energy without entropy =       89.43558180  energy(sigma->0) =       89.43558180

[...]

 BZINTS: Fermi energy: -1.734888; 18.000000 electrons
         Band energy:-113.745237;  BLOECHL correction: -0.064710

 eigenvalue-minimisations  :   603
 total energy-change (2. order) :-0.9011905E+02  (-0.8635222E+02)
 number of electron      18.0000000 magnetization
 augmentation part       18.0000000 magnetization

[...]

 Broyden mixing:
  rms(total) = 0.10499E+01    rms(broyden)= 0.10498E+01
  rms(prec ) = 0.16059E+01
  weight for this iteration     100.00

[...]

 eigenvalues of (default mixing * dielectric matrix)
  average eigenvalue GAMMA=   0.2562
  0.2562

[...]

 BZINTS: Fermi energy: -0.253585; 18.000000 electrons
         Band energy: -97.917402;  BLOECHL correction: -0.142709

[...]

 eigenvalue-minimisations  :   460
 total energy-change (2. order) :-0.1167075E+00  (-0.3318572E-01)
 number of electron      18.0000025 magnetization
 augmentation part       -0.6874723 magnetization

 Broyden mixing:
  rms(total) = 0.30163E+00    rms(broyden)= 0.30160E+00
  rms(prec ) = 0.75332E+00
  weight for this iteration     100.00

 eigenvalues of (default mixing * dielectric matrix)
  average eigenvalue GAMMA=   1.0843
  4.8877  2.9517  2.9517  2.3167  2.3386  2.3386  2.3109  2.0436  2.0436  1.8405
  1.8405  1.7134  1.2400  1.2400  0.6859  0.6859  0.3122  0.7021  0.7021  1.0085
  1.0085  0.9122  0.9122  0.7562  0.7562  0.1409  0.1409  0.6358  0.6358  0.0597
  0.0597  0.6875  0.6875  0.3323  0.3323  0.5439  0.5439  0.1544  0.3673  0.3673
  0.4810  0.3905  0.3905  0.2566

[...]

--------------------------------------- Iteration      1(  60)  ---------------------------------------

[...]

 eigenvalue-minimisations  :   389
 total energy-change (2. order) : 0.1215622E+00  (-0.4261972E-02)
 number of electron      18.0000025 magnetization
 augmentation part       -0.6874723 magnetization

 Free energy of the ion-electron system (eV)
  alpha Z        PSCENC =         9.92223239
  Ewald energy   TEWEN  =       823.41689292
  -Hartree energ DENC   =     -1535.92732860
  -exchange      EXHF   =         0.00000000
  -V(xc)+E(xc)   XCENC  =       -39.93284914
  PAW double counting   =       405.00060130     -327.65774013
  entropy T*S    EENTRO =         0.00000000
  eigenvalues    EBANDS =      -119.43146490
  atomic energy  EATOM  =       772.51394549
  Solvation  Ediel_sol  =         0.00000000
  free energy    TOTEN  =       -12.09571067 eV

  energy without entropy =      -12.09571067  energy(sigma->0) =      -12.09571067

 average (electrostatic) potential at core
  the test charge radii are     1.2296  0.9698
  (the norm of the test charge is              1.0000)
       1 -46.6112       2-111.0813       3-110.8943

 E-fermi :  -2.9829     XC(G=0):  -3.5675     alpha+bet : -2.4600

 k-point     1 :       0.0000    0.0000    0.0000
  band No.  band energies     occupation
      1     -15.6173      2.00000
      2     -15.2943      2.00000
      3      -6.6506      2.00000
      4      -5.3876      2.00000
      5      -5.1493      2.00000
      6      -3.0060      2.00000
      7      -3.0060      1.78669
      8      -2.9723      0.00000
      9      -1.6848      0.00000
     10      -1.6846      0.00000
     11      -1.6337      0.00000
     12      -1.2856      0.00000
     13      -1.2848      0.00000

[...]

 k-point    14 :       0.3000    0.3000    0.0000
  band No.  band energies     occupation
      1     -13.8561      2.00000
      2     -13.5597      2.00000
      3      -5.8803      2.00000
      4      -5.5610      2.00000
      5      -5.0809      2.00000
      6      -4.7803      2.00000
      7      -4.0929      2.00000
      8      -3.6782      2.00000
      9      -3.6226      2.00000
     10      -3.2987      2.00000
     11      -3.0809      1.26347
     12      -2.5887      0.00000
     13      -2.2127      0.00000

 soft charge-density along one line, spin component           1
         0         1         2         3         4         5         6         7         8         9
 total charge-density along one line

------------------------ aborting loop because EDIFF is reached ----------------------------------------

  FORCE on cell =-STRESS in cart. coord.  units (eV):
  Direction    XX          YY          ZZ          XY          YZ          ZX
  Alpha Z     9.92223     9.92223     9.92223
  Ewald    1338.40476  1338.40483 -1853.39307     0.00001     0.00001    -0.00001
  Hartree  1278.05243  1278.05242 -1234.31911     0.00000     0.00000     0.00000
  E(xc)     -66.05176   -66.05178   -64.96587    -0.00001    -0.00000     0.00000
  Local   -2863.80982 -2863.81024  2720.68447    -0.00039    -0.00001     0.00001
  n-local   164.56472   164.11739   173.13028     0.77592    -0.56860     0.12242
  augment   -44.95965   -44.95965   -48.01061     0.00000     0.00001    -0.00001
  Kinetic   224.87250   212.74863   233.64560    22.88307    -0.85924     0.89940
  Fock        0.00000     0.00000     0.00000     0.00000     0.00000     0.00000
  Total      34.70963    34.70962   -63.30608     0.00000     0.00000     0.00000
  in kB     210.30105   210.30094  -383.56310     0.00000     0.00000     0.00000

 VOLUME and BASIS-vectors are now :
  energy-cutoff  :      280.00
  volume of cell :      264.44
      direct lattice vectors                 reciprocal lattice vectors
     3.190316000  0.000000000  0.000000000     0.313448574  0.180969664  0.000000000
    -1.595158000  2.762894000  0.000000000     0.000000000  0.361939329  0.000000000
     0.000000000  0.000000000 30.000000000     0.000000000  0.000000000  0.033333333

  length of vectors
     3.190316000  3.190315392 30.000000000     0.361939260  0.361939329  0.033333333

 FORCES acting on ions
    electron-ion (+dipol)            ewald-force                    non-local-force                 convergence-correction
   0.471E-04 -.269E-04 0.190E+03   0.303E-05 -.251E-05 -.213E+03   0.000E+00 0.000E+00 0.174E+01   0.655E-05 -.370E-05 0.230E+02
   -.975E-03 0.563E-03 -.259E+03   -.303E-05 0.251E-05 0.291E+03   -.104E-16 0.694E-17 -.399E+01   -.364E-06 0.142E-06 -.289E+02
   0.107E-02 -.618E-03 0.663E+02   0.880E-14 0.262E-14 -.777E+02   0.000E+00 0.000E+00 0.253E+01   -.259E-04 0.149E-04 0.894E+01
   0.142E-03 -.823E-04 -.333E+01   0.264E-13 0.787E-14 0.284E-13   -.104E-16 0.694E-17 0.283E+00   -.197E-04 0.114E-04 0.306E+01

 POSITION                                       TOTAL-FORCE (eV/Angst)
     -0.00000      1.84193      7.50000        -0.000000      0.000000      1.361337
      1.59516      0.92096     10.65522        -0.000000      0.000000     -1.411996
     -0.00000      1.84193     25.65522         0.000000     -0.000000      0.050660
    total drift:                                0.000123     -0.000071      0.019299

  FREE ENERGIE OF THE ION-ELECTRON SYSTEM (eV)
  free  energy   TOTEN  =       -12.09571067 eV

  energy  without entropy=      -12.09571067  energy(sigma->0) =      -12.09571067

 BZINTS: Fermi energy: -2.982857; 18.000000 electrons
         Band energy:-119.431465;  BLOECHL correction: -0.069710